5
Coordinates from ORCA-job CH4_DFT E -38.970049976599
  C      -0.000000     -0.000000      0.118000
  H      -0.000004      0.000000      0.618000
  H       1.029501      0.000000     -0.245996
  H      -0.514799      0.891600     -0.246002
  H      -0.514799     -0.891600     -0.246002
5
Coordinates from ORCA-job CH4_DFT E -38.970391177454
  C      -0.000010      0.000000      0.124936
  H      -0.000013      0.000000      0.624936
  H       1.019272     -0.000000     -0.250628
  H      -0.509675      0.882713     -0.250622
  H      -0.509675     -0.882713     -0.250622
5
Coordinates from ORCA-job CH4_DFT E -38.970517987735
  C      -0.000012     -0.000000      0.133816
  H      -0.000008     -0.000000      0.633816
  H       1.013956     -0.000000     -0.256546
  H      -0.507018      0.878120     -0.256543
  H      -0.507018     -0.878120     -0.256543
5
Coordinates from ORCA-job CH4_DFT E -38.970520287477
  C      -0.000013      0.000000      0.134962
  H      -0.000007      0.000000      0.634962
  H       1.013840     -0.000000     -0.257309
  H      -0.506960      0.878023     -0.257307
  H      -0.506960     -0.878023     -0.257307
5
Coordinates from ORCA-job CH4_DFT E -38.970520292403
  C      -0.000014     -0.000000      0.134990
  H      -0.000007      0.000000      0.634990
  H       1.013862      0.000000     -0.257328
  H      -0.506971      0.878043     -0.257326
  H      -0.506971     -0.878043     -0.257326
5
Coordinates from ORCA-job CH4_DFT E -39.459935441169
  C      -0.000014     -0.000000      0.114990
  H      -0.000005      0.000000      0.714990
  H       1.013862      0.000000     -0.277328
  H      -0.506971      0.878043     -0.277326
  H      -0.506971     -0.878043     -0.277326
5
Coordinates from ORCA-job CH4_DFT E -39.459943770740
  C      -0.000014      0.000000      0.114894
  H      -0.000007      0.000000      0.714894
  H       1.016180     -0.000000     -0.277266
  H      -0.508130      0.880046     -0.277261
  H      -0.508130     -0.880046     -0.277261
5
Coordinates from ORCA-job CH4_DFT E -39.459944373181
  C      -0.000013      0.000000      0.114559
  H      -0.000008      0.000000      0.714559
  H       1.016101     -0.000000     -0.277042
  H      -0.508090      0.879978     -0.277038
  H      -0.508090     -0.879978     -0.277038
5
Coordinates from ORCA-job CH4_DFT E -39.734104047047
  C      -0.000013      0.000000      0.094559
  H      -0.000007      0.000000      0.794559
  H       1.016101     -0.000000     -0.297042
  H      -0.508090      0.879978     -0.297038
  H      -0.508090     -0.879978     -0.297038
5
Coordinates from ORCA-job CH4_DFT E -39.734116632454
  C      -0.000012      0.000000      0.094138
  H      -0.000008      0.000000      0.794138
  H       1.018930     -0.000000     -0.296762
  H      -0.509505      0.882425     -0.296757
  H      -0.509505     -0.882425     -0.296757
5
Coordinates from ORCA-job CH4_DFT E -39.734117840168
  C      -0.000011     -0.000000      0.093594
  H      -0.000009     -0.000000      0.793594
  H       1.018987      0.000000     -0.296400
  H      -0.509533      0.882473     -0.296394
  H      -0.509533     -0.882473     -0.296394
5
Coordinates from ORCA-job CH4_DFT E -39.734118140953
  C      -0.000010     -0.000000      0.093121
  H      -0.000009      0.000000      0.793121
  H       1.019161      0.000000     -0.296085
  H      -0.509621      0.882624     -0.296079
  H      -0.509621     -0.882624     -0.296079
5
Coordinates from ORCA-job CH4_DFT E -39.883998962855
  C      -0.000010     -0.000000      0.073121
  H      -0.000009      0.000000      0.873121
  H       1.019161      0.000000     -0.316085
  H      -0.509621      0.882624     -0.316079
  H      -0.509621     -0.882624     -0.316079
5
Coordinates from ORCA-job CH4_DFT E -39.884013855463
  C      -0.000011     -0.000000      0.072422
  H      -0.000010     -0.000000      0.872422
  H       1.022200      0.000000     -0.315620
  H      -0.511139      0.885256     -0.315612
  H      -0.511139     -0.885256     -0.315612
5
Coordinates from ORCA-job CH4_DFT E -39.884015507617
  C      -0.000011      0.000000      0.071724
  H      -0.000011     -0.000000      0.871724
  H       1.022362     -0.000000     -0.315156
  H      -0.511220      0.885398     -0.315147
  H      -0.511220     -0.885398     -0.315147
5
Coordinates from ORCA-job CH4_DFT E -39.884015833198
  C      -0.000011      0.000000      0.071234
  H      -0.000011     -0.000000      0.871234
  H       1.022511      0.000000     -0.314829
  H      -0.511295      0.885527     -0.314820
  H      -0.511295     -0.885527     -0.314820
5
Coordinates from ORCA-job CH4_DFT E -39.960955288422
  C      -0.000011      0.000000      0.051234
  H      -0.000011     -0.000000      0.951234
  H       1.022511      0.000000     -0.334829
  H      -0.511295      0.885527     -0.334819
  H      -0.511295     -0.885527     -0.334819
5
Coordinates from ORCA-job CH4_DFT E -39.960974277747
  C      -0.000012     -0.000000      0.049872
  H      -0.000013     -0.000000      0.949872
  H       1.025645      0.000000     -0.333923
  H      -0.512860      0.888244     -0.333910
  H      -0.512860     -0.888244     -0.333910
5
Coordinates from ORCA-job CH4_DFT E -39.960977470120
  C      -0.000013     -0.000000      0.048670
  H      -0.000013     -0.000000      0.948670
  H       1.026178     -0.000000     -0.333122
  H      -0.513126      0.888707     -0.333109
  H      -0.513126     -0.888707     -0.333109
5
Coordinates from ORCA-job CH4_DFT E -39.960977743033
  C      -0.000013      0.000000      0.048246
  H      -0.000013      0.000000      0.948246
  H       1.026229      0.000000     -0.332840
  H      -0.513152      0.888752     -0.332826
  H      -0.513152     -0.888752     -0.332826
5
Coordinates from ORCA-job CH4_DFT E -39.994876123830
  C      -0.000013      0.000000      0.028246
  H      -0.000013      0.000000      1.028246
  H       1.026229      0.000000     -0.352840
  H      -0.513152      0.888752     -0.352826
  H      -0.513152     -0.888752     -0.352826
5
Coordinates from ORCA-job CH4_DFT E -39.994901555561
  C      -0.000015     -0.000000      0.026153
  H      -0.000015      0.000000      1.026153
  H       1.029382     -0.000000     -0.351447
  H      -0.514726      0.891486     -0.351430
  H      -0.514726     -0.891486     -0.351430
5
Coordinates from ORCA-job CH4_DFT E -39.994906946618
  C      -0.000016     -0.000000      0.024266
  H      -0.000015      0.000000      1.024266
  H       1.030262     -0.000000     -0.350189
  H      -0.515166      0.892252     -0.350171
  H      -0.515166     -0.892252     -0.350171
5
Coordinates from ORCA-job CH4_DFT E -39.994907026738
  C      -0.000016     -0.000000      0.024070
  H      -0.000014      0.000000      1.024070
  H       1.030234     -0.000000     -0.350058
  H      -0.515151      0.892227     -0.350041
  H      -0.515151     -0.892227     -0.350041
5
Coordinates from ORCA-job CH4_DFT E -40.003300214642
  C      -0.000016     -0.000000      0.004070
  H      -0.000014      0.000000      1.104070
  H       1.030234     -0.000000     -0.370058
  H      -0.515151      0.892227     -0.370041
  H      -0.515151     -0.892227     -0.370041
5
Coordinates from ORCA-job CH4_DFT E -40.003332933943
  C      -0.000018      0.000000      0.001320
  H      -0.000015      0.000000      1.101320
  H       1.033349     -0.000000     -0.368226
  H      -0.516707      0.894927     -0.368206
  H      -0.516707     -0.894927     -0.368207
5
Coordinates from ORCA-job CH4_DFT E -40.003340387960
  C      -0.000020     -0.000000     -0.001152
  H      -0.000015      0.000000      1.098848
  H       1.034421      0.000000     -0.366579
  H      -0.517243      0.895859     -0.366559
  H      -0.517243     -0.895859     -0.366559
5
Coordinates from ORCA-job CH4_DFT E -40.003340390836
  C      -0.000020     -0.000000     -0.001164
  H      -0.000014     -0.000000      1.098836
  H       1.034398      0.000000     -0.366570
  H      -0.517231      0.895839     -0.366551
  H      -0.517231     -0.895839     -0.366551
5
Coordinates from ORCA-job CH4_DFT E -39.996593524544
  C      -0.000020     -0.000000     -0.021164
  H      -0.000014     -0.000000      1.178836
  H       1.034397      0.000000     -0.386570
  H      -0.517232      0.895839     -0.386551
  H      -0.517232     -0.895839     -0.386551
5
Coordinates from ORCA-job CH4_DFT E -39.996632074918
  C      -0.000022     -0.000000     -0.024412
  H      -0.000014     -0.000000      1.175588
  H       1.037435      0.000000     -0.384406
  H      -0.518749      0.898471     -0.384385
  H      -0.518750     -0.898471     -0.384385
5
Coordinates from ORCA-job CH4_DFT E -39.996640993226
  C      -0.000024     -0.000000     -0.027254
  H      -0.000013      0.000000      1.172746
  H       1.038588     -0.000000     -0.382510
  H      -0.519326      0.899472     -0.382491
  H      -0.519326     -0.899472     -0.382491
5
Coordinates from ORCA-job CH4_DFT E -39.996641002856
  C      -0.000024     -0.000000     -0.027194
  H      -0.000013      0.000000      1.172806
  H       1.038606     -0.000000     -0.382550
  H      -0.519335      0.899488     -0.382531
  H      -0.519335     -0.899488     -0.382531
5
Coordinates from ORCA-job CH4_DFT E -39.981020065906
  C      -0.000024     -0.000000     -0.047194
  H      -0.000012      0.000000      1.252806
  H       1.038606     -0.000000     -0.402550
  H      -0.519335      0.899488     -0.402531
  H      -0.519335     -0.899488     -0.402531
5
Coordinates from ORCA-job CH4_DFT E -39.981062020689
  C      -0.000025     -0.000000     -0.050787
  H      -0.000012      0.000000      1.249213
  H       1.041528     -0.000000     -0.400154
  H      -0.520796      0.902020     -0.400136
  H      -0.520796     -0.902020     -0.400136
5
Coordinates from ORCA-job CH4_DFT E -39.981071788498
  C      -0.000026      0.000000     -0.053857
  H      -0.000010     -0.000000      1.246143
  H       1.042709     -0.000000     -0.398106
  H      -0.521386      0.903044     -0.398090
  H      -0.521386     -0.903044     -0.398090
5
Coordinates from ORCA-job CH4_DFT E -39.981071810021
  C      -0.000027      0.000000     -0.053780
  H      -0.000010     -0.000000      1.246220
  H       1.042758     -0.000000     -0.398158
  H      -0.521411      0.903087     -0.398142
  H      -0.521411     -0.903087     -0.398141
5
Coordinates from ORCA-job CH4_DFT E -39.960475463342
  C      -0.000027      0.000000     -0.073780
  H      -0.000009     -0.000000      1.326220
  H       1.042758     -0.000000     -0.418157
  H      -0.521411      0.903087     -0.418142
  H      -0.521411     -0.903087     -0.418142
5
Coordinates from ORCA-job CH4_DFT E -39.960518754900
  C      -0.000027      0.000000     -0.077602
  H      -0.000008      0.000000      1.322398
  H       1.045552     -0.000000     -0.415608
  H      -0.522808      0.905509     -0.415594
  H      -0.522808     -0.905509     -0.415594
5
Coordinates from ORCA-job CH4_DFT E -39.960528928775
  C      -0.000029      0.000000     -0.080820
  H      -0.000007     -0.000000      1.319180
  H       1.046732      0.000000     -0.413461
  H      -0.523398      0.906530     -0.413449
  H      -0.523398     -0.906530     -0.413449
5
Coordinates from ORCA-job CH4_DFT E -39.960528955013
  C      -0.000029      0.000000     -0.080748
  H      -0.000006     -0.000000      1.319252
  H       1.046798      0.000000     -0.413509
  H      -0.523431      0.906587     -0.413497
  H      -0.523431     -0.906587     -0.413497
5
Coordinates from ORCA-job CH4_DFT E -39.937421134412
  C      -0.000029      0.000000     -0.100748
  H      -0.000005     -0.000000      1.399252
  H       1.046797      0.000000     -0.433509
  H      -0.523431      0.906587     -0.433498
  H      -0.523431     -0.906587     -0.433498
5
Coordinates from ORCA-job CH4_DFT E -39.937464208624
  C      -0.000030      0.000000     -0.104712
  H      -0.000004     -0.000000      1.395288
  H       1.049464     -0.000000     -0.430865
  H      -0.524766      0.908899     -0.430855
  H      -0.524765     -0.908899     -0.430855
5
Coordinates from ORCA-job CH4_DFT E -39.937474523590
  C      -0.000031      0.000000     -0.108045
  H      -0.000002     -0.000000      1.391955
  H       1.050625      0.000000     -0.428641
  H      -0.525346      0.909904     -0.428634
  H      -0.525346     -0.909904     -0.428634
5
Coordinates from ORCA-job CH4_DFT E -39.937474552281
  C      -0.000031      0.000000     -0.107982
  H      -0.000002      0.000000      1.392018
  H       1.050696     -0.000000     -0.428683
  H      -0.525382      0.909966     -0.428676
  H      -0.525382     -0.909966     -0.428676
5
Coordinates from ORCA-job CH4_DFT E -39.913414561739
  C      -0.000031      0.000000     -0.127982
  H      -0.000001      0.000000      1.472018
  H       1.050696     -0.000000     -0.448683
  H      -0.525382      0.909966     -0.448677
  H      -0.525382     -0.909966     -0.448677
5
Coordinates from ORCA-job CH4_DFT E -39.913456248166
  C      -0.000031     -0.000000     -0.132025
  H       0.000000      0.000000      1.467975
  H       1.053234      0.000000     -0.445986
  H      -0.526652      0.912165     -0.445982
  H      -0.526652     -0.912165     -0.445983
5
Coordinates from ORCA-job CH4_DFT E -39.913466482378
  C      -0.000032      0.000000     -0.135434
  H       0.000002     -0.000000      1.464566
  H       1.054362     -0.000000     -0.443712
  H      -0.527216      0.913141     -0.443711
  H      -0.527216     -0.913141     -0.443711
5
Coordinates from ORCA-job CH4_DFT E -39.913466511911
  C      -0.000032      0.000000     -0.135394
  H       0.000002     -0.000000      1.464606
  H       1.054434     -0.000000     -0.443738
  H      -0.527252      0.913204     -0.443737
  H      -0.527252     -0.913204     -0.443737
5
Coordinates from ORCA-job CH4_DFT E -39.889440102410
  C      -0.000032      0.000000     -0.155394
  H       0.000004     -0.000000      1.544606
  H       1.054434     -0.000000     -0.463738
  H      -0.527253      0.913204     -0.463738
  H      -0.527252     -0.913204     -0.463737
5
Coordinates from ORCA-job CH4_DFT E -39.889479497053
  C      -0.000032     -0.000000     -0.159457
  H       0.000005      0.000000      1.540543
  H       1.056837     -0.000000     -0.461027
  H      -0.528455      0.915286     -0.461029
  H      -0.528455     -0.915286     -0.461029
5
Coordinates from ORCA-job CH4_DFT E -39.889489449520
  C      -0.000033      0.000000     -0.162975
  H       0.000006     -0.000000      1.537025
  H       1.057921     -0.000000     -0.458681
  H      -0.528997      0.916224     -0.458685
  H      -0.528997     -0.916224     -0.458684
5
Coordinates from ORCA-job CH4_DFT E -39.889489473328
  C      -0.000032      0.000000     -0.162895
  H       0.000006     -0.000000      1.537105
  H       1.057999     -0.000000     -0.458734
  H      -0.529036      0.916291     -0.458738
  H      -0.529036     -0.916291     -0.458738
5
Coordinates from ORCA-job CH4_DFT E -39.866129097613
  C      -0.000033      0.000000     -0.182895
  H       0.000007     -0.000000      1.617105
  H       1.057998     -0.000000     -0.478734
  H      -0.529036      0.916291     -0.478738
  H      -0.529036     -0.916291     -0.478738
5
Coordinates from ORCA-job CH4_DFT E -39.866165620760
  C      -0.000033     -0.000000     -0.186940
  H       0.000008      0.000000      1.613060
  H       1.060247     -0.000000     -0.476036
  H      -0.530161      0.918239     -0.476042
  H      -0.530161     -0.918239     -0.476042
5
Coordinates from ORCA-job CH4_DFT E -39.866175220824
  C      -0.000033      0.000000     -0.190516
  H       0.000009     -0.000000      1.609484
  H       1.061289     -0.000000     -0.473651
  H      -0.530682      0.919139     -0.473659
  H      -0.530682     -0.919139     -0.473659
5
Coordinates from ORCA-job CH4_DFT E -39.866175241243
  C      -0.000032     -0.000000     -0.190445
  H       0.000009      0.000000      1.609555
  H       1.061366     -0.000000     -0.473699
  H      -0.530721      0.919206     -0.473706
  H      -0.530721     -0.919206     -0.473706
5
Coordinates from ORCA-job CH4_DFT E -39.842651938077
  C      -0.000033     -0.000000     -0.230657
  H       0.000010      0.000000      1.669343
  H       1.045464     -0.000000     -0.480223
  H      -0.522770      0.905434     -0.480231
  H      -0.522770     -0.905434     -0.480231
5
Coordinates from ORCA-job CH4_DFT E -39.843880056024
  C      -0.000033     -0.000000     -0.226100
  H       0.000011      0.000000      1.673900
  H       1.069640     -0.000000     -0.483261
  H      -0.534859      0.926370     -0.483270
  H      -0.534859     -0.926370     -0.483270
5
Coordinates from ORCA-job CH4_DFT E -39.843906759812
  C      -0.000032     -0.000000     -0.224845
  H       0.000011      0.000000      1.675155
  H       1.067207      0.000000     -0.484097
  H      -0.533643      0.924262     -0.484106
  H      -0.533643     -0.924262     -0.484106
5
Coordinates from ORCA-job CH4_DFT E -39.843928448426
  C      -0.000030     -0.000000     -0.221888
  H       0.000010     -0.000000      1.678112
  H       1.064946      0.000000     -0.486070
  H      -0.532513      0.922303     -0.486078
  H      -0.532513     -0.922303     -0.486077
5
Coordinates from ORCA-job CH4_DFT E -39.843938664863
  C      -0.000029     -0.000000     -0.218984
  H       0.000009     -0.000000      1.681016
  H       1.064059      0.000000     -0.488007
  H      -0.532069      0.921533     -0.488013
  H      -0.532069     -0.921533     -0.488013
5
Coordinates from ORCA-job CH4_DFT E -39.843940491947
  C      -0.000030     -0.000000     -0.217944
  H       0.000009     -0.000000      1.682056
  H       1.064286      0.000000     -0.488700
  H      -0.532183      0.921731     -0.488706
  H      -0.532183     -0.921731     -0.488706
5
Coordinates from ORCA-job CH4_DFT E -39.843940649944
  C      -0.000030     -0.000000     -0.217973
  H       0.000009     -0.000000      1.682027
  H       1.064474     -0.000000     -0.488681
  H      -0.532276      0.921894     -0.488686
  H      -0.532276     -0.921894     -0.488686
5
Coordinates from ORCA-job CH4_DFT E -39.821796300481
  C      -0.000031     -0.000000     -0.258109
  H       0.000010     -0.000000      1.741891
  H       1.048351     -0.000000     -0.495257
  H      -0.524215      0.907930     -0.495263
  H      -0.524215     -0.907930     -0.495263
5
Coordinates from ORCA-job CH4_DFT E -39.823004089633
  C      -0.000030      0.000000     -0.253900
  H       0.000010     -0.000000      1.746100
  H       1.072538      0.000000     -0.498062
  H      -0.536309      0.928874     -0.498069
  H      -0.536309     -0.928874     -0.498069
5
Coordinates from ORCA-job CH4_DFT E -39.823029538573
  C      -0.000029      0.000000     -0.252706
  H       0.000010     -0.000000      1.747294
  H       1.070113     -0.000000     -0.498858
  H      -0.535097      0.926774     -0.498865
  H      -0.535097     -0.926774     -0.498865
5
Coordinates from ORCA-job CH4_DFT E -39.823048890334
  C      -0.000028      0.000000     -0.249974
  H       0.000009     -0.000000      1.750026
  H       1.068031      0.000000     -0.500681
  H      -0.534056      0.924970     -0.500686
  H      -0.534056     -0.924970     -0.500686
5
Coordinates from ORCA-job CH4_DFT E -39.823061340103
  C      -0.000027     -0.000000     -0.246118
  H       0.000008      0.000000      1.753882
  H       1.066687      0.000000     -0.503253
  H      -0.533384      0.923805     -0.503255
  H      -0.533384     -0.923805     -0.503255
5
Coordinates from ORCA-job CH4_DFT E -39.823063293464
  C      -0.000027     -0.000000     -0.245654
  H       0.000008      0.000000      1.754346
  H       1.067161      0.000000     -0.503563
  H      -0.533621      0.924216     -0.503564
  H      -0.533621     -0.924216     -0.503564
5
Coordinates from ORCA-job CH4_DFT E -39.823063571624
  C      -0.000028     -0.000000     -0.245523
  H       0.000008      0.000000      1.754477
  H       1.067471     -0.000000     -0.503651
  H      -0.533776      0.924486     -0.503652
  H      -0.533776     -0.924486     -0.503652
5
Coordinates from ORCA-job CH4_DFT E -39.802484294932
  C      -0.000028     -0.000000     -0.285581
  H       0.000009      0.000000      1.814419
  H       1.051176     -0.000000     -0.510278
  H      -0.525628      0.910373     -0.510280
  H      -0.525628     -0.910373     -0.510280
5
Coordinates from ORCA-job CH4_DFT E -39.803659488318
  C      -0.000028     -0.000000     -0.281713
  H       0.000009      0.000000      1.818287
  H       1.075229     -0.000000     -0.512856
  H      -0.537655      0.931200     -0.512858
  H      -0.537655     -0.931200     -0.512858
5
Coordinates from ORCA-job CH4_DFT E -39.803683705660
  C      -0.000027     -0.000000     -0.280581
  H       0.000009      0.000000      1.819419
  H       1.072817     -0.000000     -0.513612
  H      -0.536450      0.929112     -0.513613
  H      -0.536450     -0.929112     -0.513613
5
Coordinates from ORCA-job CH4_DFT E -39.803701610654
  C      -0.000025     -0.000000     -0.278064
  H       0.000007      0.000000      1.821936
  H       1.070910     -0.000000     -0.515291
  H      -0.535496      0.927459     -0.515290
  H      -0.535496     -0.927459     -0.515290
5
Coordinates from ORCA-job CH4_DFT E -39.803714549993
  C      -0.000024     -0.000000     -0.274584
  H       0.000005      0.000000      1.825416
  H       1.069728     -0.000000     -0.517614
  H      -0.534905      0.926434     -0.517609
  H      -0.534905     -0.926434     -0.517609
5
Coordinates from ORCA-job CH4_DFT E -39.803717619475
  C      -0.000024     -0.000000     -0.273098
  H       0.000004      0.000000      1.826902
  H       1.069890      0.000000     -0.518606
  H      -0.534985      0.926574     -0.518599
  H      -0.534985     -0.926574     -0.518599
5
Coordinates from ORCA-job CH4_DFT E -39.803717888868
  C      -0.000024     -0.000000     -0.272998
  H       0.000004      0.000000      1.827002
  H       1.070179      0.000000     -0.518673
  H      -0.535129      0.926825     -0.518665
  H      -0.535129     -0.926825     -0.518665
5
Coordinates from ORCA-job CH4_DFT E -39.784794135176
  C      -0.000025     -0.000000     -0.312980
  H       0.000005      0.000000      1.887020
  H       1.053756      0.000000     -0.525352
  H      -0.526918      0.912602     -0.525344
  H      -0.526918     -0.912603     -0.525344
5
Coordinates from ORCA-job CH4_DFT E -39.785940948119
  C      -0.000025     -0.000000     -0.309448
  H       0.000005      0.000000      1.890552
  H       1.077697      0.000000     -0.527707
  H      -0.538889      0.933331     -0.527699
  H      -0.538889     -0.933331     -0.527699
5
Coordinates from ORCA-job CH4_DFT E -39.785963763476
  C      -0.000023     -0.000000     -0.308390
  H       0.000005      0.000000      1.891610
  H       1.075299      0.000000     -0.528412
  H      -0.537690      0.931255     -0.528404
  H      -0.537690     -0.931255     -0.528404
5
Coordinates from ORCA-job CH4_DFT E -39.785979330856
  C      -0.000022     -0.000000     -0.306137
  H       0.000003      0.000000      1.893863
  H       1.073598     -0.000000     -0.529916
  H      -0.536840      0.929781     -0.529904
  H      -0.536840     -0.929781     -0.529905
5
Coordinates from ORCA-job CH4_DFT E -39.785993224712
  C      -0.000019     -0.000000     -0.302423
  H       0.000000      0.000000      1.897577
  H       1.072287     -0.000000     -0.532397
  H      -0.536184      0.928644     -0.532378
  H      -0.536184     -0.928644     -0.532379
5
Coordinates from ORCA-job CH4_DFT E -39.785996936225
  C      -0.000019      0.000000     -0.300670
  H      -0.000001      0.000000      1.899330
  H       1.072386     -0.000000     -0.533568
  H      -0.536233      0.928730     -0.533546
  H      -0.536233     -0.928730     -0.533546
5
Coordinates from ORCA-job CH4_DFT E -39.785997338249
  C      -0.000020      0.000000     -0.300492
  H      -0.000001      0.000000      1.899508
  H       1.072716     -0.000000     -0.533687
  H      -0.536398      0.929017     -0.533665
  H      -0.536398     -0.929017     -0.533665
5
Coordinates from ORCA-job CH4_DFT E -39.768751149739
  C      -0.000020      0.000000     -0.340395
  H      -0.000001      0.000000      1.959605
  H       1.056209     -0.000000     -0.540418
  H      -0.528144      0.914722     -0.540396
  H      -0.528144     -0.914722     -0.540396
5
Coordinates from ORCA-job CH4_DFT E -39.769865178610
  C      -0.000020     -0.000000     -0.337184
  H      -0.000001     -0.000000      1.962816
  H       1.079969     -0.000000     -0.542559
  H      -0.540024      0.935293     -0.542536
  H      -0.540024     -0.935293     -0.542536
5
Coordinates from ORCA-job CH4_DFT E -39.769886650217
  C      -0.000019      0.000000     -0.336203
  H      -0.000002     -0.000000      1.963797
  H       1.077586      0.000000     -0.543214
  H      -0.538833      0.933230     -0.543190
  H      -0.538833     -0.933230     -0.543190
5
Coordinates from ORCA-job CH4_DFT E -39.769899990626
  C      -0.000017      0.000000     -0.334200
  H      -0.000004     -0.000000      1.965800
  H       1.076084      0.000000     -0.544552
  H      -0.538082      0.931928     -0.544524
  H      -0.538082     -0.931928     -0.544524
5
Coordinates from ORCA-job CH4_DFT E -39.769914530419
  C      -0.000015      0.000000     -0.330291
  H      -0.000007     -0.000000      1.969709
  H       1.074668      0.000000     -0.547163
  H      -0.537373      0.930701     -0.547128
  H      -0.537373     -0.930701     -0.547128
5
Coordinates from ORCA-job CH4_DFT E -39.769918865737
  C      -0.000014      0.000000     -0.328263
  H      -0.000009     -0.000000      1.971737
  H       1.074696     -0.000000     -0.548519
  H      -0.537386      0.930724     -0.548478
  H      -0.537386     -0.930724     -0.548478
5
Coordinates from ORCA-job CH4_DFT E -39.769919443080
  C      -0.000014      0.000000     -0.327981
  H      -0.000010     -0.000000      1.972019
  H       1.075061     -0.000000     -0.548708
  H      -0.537568      0.931042     -0.548666
  H      -0.537568     -0.931042     -0.548666
5
Coordinates from ORCA-job CH4_DFT E -39.754318964910
  C      -0.000014      0.000000     -0.367803
  H      -0.000010     -0.000000      2.032197
  H       1.058510     -0.000000     -0.555492
  H      -0.529293      0.916709     -0.555450
  H      -0.529293     -0.916709     -0.555450
5
Coordinates from ORCA-job CH4_DFT E -39.755398528836
  C      -0.000015      0.000000     -0.364902
  H      -0.000010     -0.000000      2.035098
  H       1.082049     -0.000000     -0.557427
  H      -0.541062      0.937088     -0.557384
  H      -0.541062     -0.937088     -0.557384
5
Coordinates from ORCA-job CH4_DFT E -39.755418715167
  C      -0.000014      0.000000     -0.363997
  H      -0.000010     -0.000000      2.036003
  H       1.079681     -0.000000     -0.558031
  H      -0.539878      0.935038     -0.557987
  H      -0.539878     -0.935038     -0.557987
5
Coordinates from ORCA-job CH4_DFT E -39.755429918349
  C      -0.000013      0.000000     -0.362237
  H      -0.000012     -0.000000      2.037762
  H       1.078373      0.000000     -0.559206
  H      -0.539224      0.933905     -0.559159
  H      -0.539224     -0.933905     -0.559159
5
Coordinates from ORCA-job CH4_DFT E -39.755444750992
  C      -0.000010      0.000000     -0.358175
  H      -0.000015     -0.000000      2.041825
  H       1.076880      0.000000     -0.561920
  H      -0.538477      0.932611     -0.561865
  H      -0.538477     -0.932611     -0.561865
5
Coordinates from ORCA-job CH4_DFT E -39.755449628505
  C      -0.000010      0.000000     -0.355881
  H      -0.000017     -0.000000      2.044119
  H       1.076830      0.000000     -0.563453
  H      -0.538451      0.932568     -0.563393
  H      -0.538451     -0.932568     -0.563393
5
Coordinates from ORCA-job CH4_DFT E -39.755450401908
  C      -0.000010      0.000000     -0.355466
  H      -0.000018     -0.000000      2.044534
  H       1.077219      0.000000     -0.563731
  H      -0.538646      0.932906     -0.563668
  H      -0.538646     -0.932906     -0.563668
5
Coordinates from ORCA-job CH4_DFT E -39.755450427889
  C      -0.000010     -0.000000     -0.355551
  H      -0.000018     -0.000000      2.044449
  H       1.077335      0.000000     -0.563674
  H      -0.538703      0.933006     -0.563612
  H      -0.538703     -0.933006     -0.563612
5
Coordinates from ORCA-job CH4_DFT E -39.741432778784
  C      -0.000009     -0.000000     -0.395292
  H      -0.000019     -0.000000      2.104708
  H       1.060780      0.000000     -0.570514
  H      -0.530426      0.918670     -0.570451
  H      -0.530426     -0.918670     -0.570451
5
Coordinates from ORCA-job CH4_DFT E -39.742467100851
  C      -0.000011      0.000000     -0.392682
  H      -0.000018     -0.000000      2.107318
  H       1.083958      0.000000     -0.572253
  H      -0.542015      0.938736     -0.572191
  H      -0.542015     -0.938736     -0.572191
5
Coordinates from ORCA-job CH4_DFT E -39.742486167567
  C      -0.000010     -0.000000     -0.391845
  H      -0.000018      0.000000      2.108155
  H       1.081608      0.000000     -0.572812
  H      -0.540840      0.936703     -0.572750
  H      -0.540840     -0.936703     -0.572750
5
Coordinates from ORCA-job CH4_DFT E -39.742495646942
  C      -0.000009     -0.000000     -0.390283
  H      -0.000019      0.000000      2.109717
  H       1.080465      0.000000     -0.573853
  H      -0.540269      0.935713     -0.573790
  H      -0.540269     -0.935713     -0.573790
5
Coordinates from ORCA-job CH4_DFT E -39.742510604673
  C      -0.000008     -0.000000     -0.386084
  H      -0.000020     -0.000000      2.113916
  H       1.078915      0.000000     -0.576655
  H      -0.539494      0.934370     -0.576588
  H      -0.539494     -0.934370     -0.576588
5
Coordinates from ORCA-job CH4_DFT E -39.742516018419
  C      -0.000007      0.000000     -0.383512
  H      -0.000022     -0.000000      2.116488
  H       1.078789      0.000000     -0.578372
  H      -0.539430      0.934261     -0.578302
  H      -0.539430     -0.934261     -0.578302
5
Coordinates from ORCA-job CH4_DFT E -39.742517026188
  C      -0.000008     -0.000000     -0.382941
  H      -0.000022     -0.000000      2.117059
  H       1.079197      0.000000     -0.578754
  H      -0.539633      0.934614     -0.578682
  H      -0.539633     -0.934614     -0.578682
5
Coordinates from ORCA-job CH4_DFT E -39.742517064471
  C      -0.000008      0.000000     -0.383037
  H      -0.000023     -0.000000      2.116963
  H       1.079339      0.000000     -0.578691
  H      -0.539704      0.934738     -0.578617
  H      -0.539704     -0.934738     -0.578617
