5
Coordinates from ORCA-job CH4_CASSCF_88 E -38.752919186546
  C      -0.000000     -0.000000      0.118000
  H      -0.000004      0.000000      0.618000
  H       1.029501      0.000000     -0.245996
  H      -0.514799      0.891600     -0.246002
  H      -0.514799     -0.891600     -0.246002
5
Coordinates from ORCA-job CH4_CASSCF_88 E -38.753404655447
  C      -0.000014      0.000000      0.129164
  H      -0.000018      0.000000      0.629164
  H       1.029788      0.000000     -0.253451
  H      -0.514928      0.891823     -0.253439
  H      -0.514928     -0.891823     -0.253439
5
Coordinates from ORCA-job CH4_CASSCF_88 E -38.753577131878
  C      -0.000019     -0.000000      0.139365
  H      -0.000017     -0.000000      0.639365
  H       1.022865      0.000000     -0.260252
  H      -0.511464      0.885845     -0.260239
  H      -0.511464     -0.885845     -0.260239
5
Coordinates from ORCA-job CH4_CASSCF_88 E -38.753579824840
  C      -0.000019     -0.000000      0.140400
  H      -0.000016     -0.000000      0.640400
  H       1.021574      0.000000     -0.260942
  H      -0.510819      0.884728     -0.260930
  H      -0.510819     -0.884728     -0.260930
5
Coordinates from ORCA-job CH4_CASSCF_88 E -38.753579829322
  C      -0.000019     -0.000000      0.140410
  H      -0.000016     -0.000000      0.640410
  H       1.021527      0.000000     -0.260947
  H      -0.510796      0.884688     -0.260936
  H      -0.510796     -0.884688     -0.260936
5
Coordinates from ORCA-job CH4_CASSCF_88 E -39.247513455289
  C      -0.000019     -0.000000      0.120410
  H      -0.000015     -0.000000      0.720410
  H       1.021527      0.000000     -0.280947
  H      -0.510796      0.884688     -0.280936
  H      -0.510796     -0.884688     -0.280936
5
Coordinates from ORCA-job CH4_CASSCF_88 E -39.247527859120
  C      -0.000019     -0.000000      0.119842
  H      -0.000015     -0.000000      0.719842
  H       1.024536      0.000000     -0.280569
  H      -0.512301      0.887294     -0.280558
  H      -0.512301     -0.887294     -0.280558
5
Coordinates from ORCA-job CH4_CASSCF_88 E -39.247529688559
  C      -0.000019     -0.000000      0.119142
  H      -0.000015      0.000000      0.719142
  H       1.024720      0.000000     -0.280102
  H      -0.512393      0.887453     -0.280091
  H      -0.512393     -0.887453     -0.280091
5
Coordinates from ORCA-job CH4_CASSCF_88 E -39.247530152207
  C      -0.000019     -0.000000      0.118556
  H      -0.000015      0.000000      0.718556
  H       1.024941     -0.000000     -0.279712
  H      -0.512504      0.887644     -0.279700
  H      -0.512504     -0.887644     -0.279700
5
Coordinates from ORCA-job CH4_CASSCF_88 E -39.247530152093
  C      -0.000019      0.000000      0.118557
  H      -0.000015     -0.000000      0.718557
  H       1.024935     -0.000000     -0.279712
  H      -0.512500      0.887638     -0.279701
  H      -0.512500     -0.887638     -0.279701
5
Coordinates from ORCA-job CH4_CASSCF_88 E -39.525835088891
  C      -0.000019      0.000000      0.098557
  H      -0.000014     -0.000000      0.798557
  H       1.024934     -0.000000     -0.299712
  H      -0.512500      0.887638     -0.299701
  H      -0.512500     -0.887638     -0.299701
5
Coordinates from ORCA-job CH4_CASSCF_88 E -39.525851265839
  C      -0.000019      0.000000      0.097951
  H      -0.000014     -0.000000      0.797951
  H       1.028175      0.000000     -0.299308
  H      -0.514121      0.890445     -0.299297
  H      -0.514121     -0.890445     -0.299297
5
Coordinates from ORCA-job CH4_CASSCF_88 E -39.525853015251
  C      -0.000019     -0.000000      0.097265
  H      -0.000014      0.000000      0.797265
  H       1.028288      0.000000     -0.298851
  H      -0.514177      0.890542     -0.298840
  H      -0.514177     -0.890542     -0.298840
5
Coordinates from ORCA-job CH4_CASSCF_88 E -39.525853401707
  C      -0.000019     -0.000000      0.096734
  H      -0.000014     -0.000000      0.796734
  H       1.028482     -0.000000     -0.298496
  H      -0.514274      0.890711     -0.298485
  H      -0.514274     -0.890711     -0.298485
5
Coordinates from ORCA-job CH4_CASSCF_88 E -39.679490200417
  C      -0.000019     -0.000000      0.076734
  H      -0.000014     -0.000000      0.876734
  H       1.028482     -0.000000     -0.318496
  H      -0.514274      0.890711     -0.318485
  H      -0.514274     -0.890711     -0.318485
5
Coordinates from ORCA-job CH4_CASSCF_88 E -39.679508308167
  C      -0.000019     -0.000000      0.075778
  H      -0.000014      0.000000      0.875778
  H       1.031832      0.000000     -0.317860
  H      -0.515949      0.893612     -0.317848
  H      -0.515949     -0.893612     -0.317848
5
Coordinates from ORCA-job CH4_CASSCF_88 E -39.679510627465
  C      -0.000019     -0.000000      0.074897
  H      -0.000014      0.000000      0.874897
  H       1.032087      0.000000     -0.317272
  H      -0.516077      0.893833     -0.317261
  H      -0.516077     -0.893833     -0.317261
5
Coordinates from ORCA-job CH4_CASSCF_88 E -39.679510988721
  C      -0.000019     -0.000000      0.074393
  H      -0.000014      0.000000      0.874393
  H       1.032224      0.000000     -0.316936
  H      -0.516145      0.893951     -0.316925
  H      -0.516145     -0.893951     -0.316925
5
Coordinates from ORCA-job CH4_CASSCF_88 E -39.759651907746
  C      -0.000020     -0.000000      0.054393
  H      -0.000013      0.000000      0.954393
  H       1.032224      0.000000     -0.336936
  H      -0.516145      0.893951     -0.336925
  H      -0.516145     -0.893951     -0.336925
5
Coordinates from ORCA-job CH4_CASSCF_88 E -39.759673344921
  C      -0.000020     -0.000000      0.052858
  H      -0.000013      0.000000      0.952858
  H       1.035584      0.000000     -0.335913
  H      -0.517826      0.896862     -0.335902
  H      -0.517826     -0.896862     -0.335902
5
Coordinates from ORCA-job CH4_CASSCF_88 E -39.759676924257
  C      -0.000020     -0.000000      0.051547
  H      -0.000013      0.000000      0.951547
  H       1.036129      0.000000     -0.335039
  H      -0.518098      0.897333     -0.335028
  H      -0.518098     -0.897333     -0.335028
5
Coordinates from ORCA-job CH4_CASSCF_88 E -39.759677161737
  C      -0.000020     -0.000000      0.051163
  H      -0.000013      0.000000      0.951163
  H       1.036168     -0.000000     -0.334783
  H      -0.518118      0.897367     -0.334772
  H      -0.518118     -0.897367     -0.334772
5
Coordinates from ORCA-job CH4_CASSCF_88 E -39.796138938104
  C      -0.000020     -0.000000      0.031163
  H      -0.000013      0.000000      1.031163
  H       1.036168     -0.000000     -0.354783
  H      -0.518118      0.897367     -0.354772
  H      -0.518118     -0.897367     -0.354772
5
Coordinates from ORCA-job CH4_CASSCF_88 E -39.796165890592
  C      -0.000020     -0.000000      0.028956
  H      -0.000013      0.000000      1.028956
  H       1.039484      0.000000     -0.353312
  H      -0.519776      0.900239     -0.353300
  H      -0.519776     -0.900239     -0.353300
5
Coordinates from ORCA-job CH4_CASSCF_88 E -39.796171200421
  C      -0.000020      0.000000      0.027060
  H      -0.000013     -0.000000      1.027060
  H       1.040299      0.000000     -0.352048
  H      -0.520184      0.900945     -0.352036
  H      -0.520184     -0.900945     -0.352036
5
Coordinates from ORCA-job CH4_CASSCF_88 E -39.796171252914
  C      -0.000020     -0.000000      0.026904
  H      -0.000013     -0.000000      1.026904
  H       1.040281      0.000000     -0.351944
  H      -0.520174      0.900929     -0.351932
  H      -0.520174     -0.900929     -0.351932
5
Coordinates from ORCA-job CH4_CASSCF_88 E -39.806513185456
  C      -0.000020     -0.000000      0.006904
  H      -0.000012     -0.000000      1.106904
  H       1.040281      0.000000     -0.371944
  H      -0.520175      0.900929     -0.371932
  H      -0.520175     -0.900929     -0.371932
5
Coordinates from ORCA-job CH4_CASSCF_88 E -39.806546443958
  C      -0.000020     -0.000000      0.004081
  H      -0.000012      0.000000      1.104081
  H       1.043510      0.000000     -0.370061
  H      -0.521789      0.903726     -0.370050
  H      -0.521789     -0.903726     -0.370050
5
Coordinates from ORCA-job CH4_CASSCF_88 E -39.806553316459
  C      -0.000020      0.000000      0.001692
  H      -0.000012     -0.000000      1.101692
  H       1.044479     -0.000000     -0.368469
  H      -0.522274      0.904565     -0.368458
  H      -0.522274     -0.904565     -0.368458
5
Coordinates from ORCA-job CH4_CASSCF_88 E -39.806553316702
  C      -0.000020      0.000000      0.001706
  H      -0.000012     -0.000000      1.101706
  H       1.044470     -0.000000     -0.368478
  H      -0.522269      0.904557     -0.368467
  H      -0.522269     -0.904557     -0.368467
5
Coordinates from ORCA-job CH4_CASSCF_88 E -39.801263878686
  C      -0.000020      0.000000     -0.018294
  H      -0.000011     -0.000000      1.181706
  H       1.044470     -0.000000     -0.388478
  H      -0.522269      0.904557     -0.388467
  H      -0.522269     -0.904557     -0.388467
5
Coordinates from ORCA-job CH4_CASSCF_88 E -39.801302331493
  C      -0.000020      0.000000     -0.021598
  H      -0.000011     -0.000000      1.178402
  H       1.047588      0.000000     -0.386275
  H      -0.523828      0.907258     -0.386264
  H      -0.523828     -0.907258     -0.386264
5
Coordinates from ORCA-job CH4_CASSCF_88 E -39.801310326550
  C      -0.000020      0.000000     -0.024305
  H      -0.000012      0.000000      1.175695
  H       1.048625     -0.000000     -0.384471
  H      -0.524347      0.908156     -0.384460
  H      -0.524347     -0.908156     -0.384460
5
Coordinates from ORCA-job CH4_CASSCF_88 E -39.801310343446
  C      -0.000020      0.000000     -0.024221
  H      -0.000012      0.000000      1.175779
  H       1.048661     -0.000000     -0.384527
  H      -0.524365      0.908187     -0.384515
  H      -0.524365     -0.908187     -0.384515
5
Coordinates from ORCA-job CH4_CASSCF_88 E -39.786864855658
  C      -0.000020      0.000000     -0.044221
  H      -0.000011      0.000000      1.255779
  H       1.048661     -0.000000     -0.404527
  H      -0.524365      0.908187     -0.404515
  H      -0.524365     -0.908187     -0.404515
5
Coordinates from ORCA-job CH4_CASSCF_88 E -39.786906696025
  C      -0.000020     -0.000000     -0.047884
  H      -0.000011     -0.000000      1.252116
  H       1.051634      0.000000     -0.402085
  H      -0.525851      0.910762     -0.402074
  H      -0.525851     -0.910762     -0.402074
5
Coordinates from ORCA-job CH4_CASSCF_88 E -39.786915452485
  C      -0.000020     -0.000000     -0.050804
  H      -0.000011     -0.000000      1.249196
  H       1.052708      0.000000     -0.400138
  H      -0.526388      0.911691     -0.400127
  H      -0.526388     -0.911691     -0.400127
5
Coordinates from ORCA-job CH4_CASSCF_88 E -39.786915484358
  C      -0.000020     -0.000000     -0.050704
  H      -0.000011      0.000000      1.249296
  H       1.052779      0.000000     -0.400205
  H      -0.526424      0.911753     -0.400193
  H      -0.526424     -0.911753     -0.400193
5
Coordinates from ORCA-job CH4_CASSCF_88 E -39.767483074888
  C      -0.000021     -0.000000     -0.070704
  H      -0.000010      0.000000      1.329296
  H       1.052779      0.000000     -0.420205
  H      -0.526424      0.911753     -0.420193
  H      -0.526424     -0.911753     -0.420193
5
Coordinates from ORCA-job CH4_CASSCF_88 E -39.767526913059
  C      -0.000021     -0.000000     -0.074636
  H      -0.000010     -0.000000      1.325364
  H       1.055600      0.000000     -0.417584
  H      -0.527834      0.914196     -0.417572
  H      -0.527834     -0.914196     -0.417572
5
Coordinates from ORCA-job CH4_CASSCF_88 E -39.767536254759
  C      -0.000021     -0.000000     -0.077735
  H      -0.000010     -0.000000      1.322265
  H       1.056702      0.000000     -0.415518
  H      -0.528385      0.915150     -0.415506
  H      -0.528385     -0.915150     -0.415506
5
Coordinates from ORCA-job CH4_CASSCF_88 E -39.767536290705
  C      -0.000021     -0.000000     -0.077638
  H      -0.000010      0.000000      1.322362
  H       1.056792      0.000000     -0.415582
  H      -0.528431      0.915229     -0.415571
  H      -0.528431     -0.915229     -0.415571
5
Coordinates from ORCA-job CH4_CASSCF_88 E -39.745886642969
  C      -0.000021     -0.000000     -0.097638
  H      -0.000010      0.000000      1.402362
  H       1.056792      0.000000     -0.435582
  H      -0.528431      0.915229     -0.435571
  H      -0.528431     -0.915229     -0.435571
5
Coordinates from ORCA-job CH4_CASSCF_88 E -39.745931466571
  C      -0.000021     -0.000000     -0.101778
  H      -0.000010      0.000000      1.398222
  H       1.059460      0.000000     -0.432823
  H      -0.529765      0.917540     -0.432811
  H      -0.529765     -0.917540     -0.432811
5
Coordinates from ORCA-job CH4_CASSCF_88 E -39.745941346928
  C      -0.000021     -0.000000     -0.105058
  H      -0.000010      0.000000      1.394942
  H       1.060589     -0.000000     -0.430635
  H      -0.530329      0.918517     -0.430624
  H      -0.530329     -0.918517     -0.430624
5
Coordinates from ORCA-job CH4_CASSCF_88 E -39.745941381110
  C      -0.000021     -0.000000     -0.104970
  H      -0.000010      0.000000      1.395030
  H       1.060689      0.000000     -0.430694
  H      -0.530379      0.918603     -0.430683
  H      -0.530379     -0.918603     -0.430683
5
Coordinates from ORCA-job CH4_CASSCF_88 E -39.723941231469
  C      -0.000021     -0.000000     -0.124970
  H      -0.000009      0.000000      1.475030
  H       1.060689      0.000000     -0.450694
  H      -0.530379      0.918603     -0.450683
  H      -0.530379     -0.918603     -0.450683
5
Coordinates from ORCA-job CH4_CASSCF_88 E -39.723986047025
  C      -0.000021      0.000000     -0.129263
  H      -0.000009     -0.000000      1.470737
  H       1.063195     -0.000000     -0.447833
  H      -0.531632      0.920774     -0.447821
  H      -0.531632     -0.920774     -0.447821
5
Coordinates from ORCA-job CH4_CASSCF_88 E -39.723996444101
  C      -0.000021     -0.000000     -0.132747
  H      -0.000009      0.000000      1.467253
  H       1.064342     -0.000000     -0.445509
  H      -0.532206      0.921767     -0.445498
  H      -0.532206     -0.921767     -0.445498
5
Coordinates from ORCA-job CH4_CASSCF_88 E -39.723996480882
  C      -0.000021      0.000000     -0.132665
  H      -0.000009      0.000000      1.467335
  H       1.064455     -0.000000     -0.445565
  H      -0.532263      0.921866     -0.445553
  H      -0.532263     -0.921866     -0.445553
5
Coordinates from ORCA-job CH4_CASSCF_88 E -39.702906540780
  C      -0.000021      0.000000     -0.152665
  H      -0.000009      0.000000      1.547335
  H       1.064455     -0.000000     -0.465565
  H      -0.532263      0.921866     -0.465553
  H      -0.532263     -0.921866     -0.465553
5
Coordinates from ORCA-job CH4_CASSCF_88 E -39.702950176598
  C      -0.000021     -0.000000     -0.157045
  H      -0.000009      0.000000      1.542955
  H       1.066776     -0.000000     -0.462645
  H      -0.533423      0.923875     -0.462633
  H      -0.533423     -0.923875     -0.462633
5
Coordinates from ORCA-job CH4_CASSCF_88 E -39.702961046664
  C      -0.000021     -0.000000     -0.160738
  H      -0.000009      0.000000      1.539262
  H       1.067955      0.000000     -0.460182
  H      -0.534012      0.924896     -0.460171
  H      -0.534012     -0.924896     -0.460171
5
Coordinates from ORCA-job CH4_CASSCF_88 E -39.702961075186
  C      -0.000021     -0.000000     -0.160671
  H      -0.000009      0.000000      1.539329
  H       1.068063     -0.000000     -0.460227
  H      -0.534066      0.924990     -0.460215
  H      -0.534066     -0.924990     -0.460215
5
Coordinates from ORCA-job CH4_CASSCF_88 E -39.683618886399
  C      -0.000021     -0.000000     -0.180671
  H      -0.000008      0.000000      1.619329
  H       1.068063     -0.000000     -0.480227
  H      -0.534067      0.924990     -0.480215
  H      -0.534067     -0.924990     -0.480215
5
Coordinates from ORCA-job CH4_CASSCF_88 E -39.683660069255
  C      -0.000021     -0.000000     -0.185063
  H      -0.000008      0.000000      1.614937
  H       1.070172      0.000000     -0.477299
  H      -0.535121      0.926816     -0.477287
  H      -0.535121     -0.926816     -0.477287
5
Coordinates from ORCA-job CH4_CASSCF_88 E -39.683671301461
  C      -0.000021     -0.000000     -0.188973
  H      -0.000008      0.000000      1.611027
  H       1.071380      0.000000     -0.474692
  H      -0.535725      0.927862     -0.474681
  H      -0.535725     -0.927862     -0.474681
5
Coordinates from ORCA-job CH4_CASSCF_88 E -39.683671321811
  C      -0.000021     -0.000000     -0.188926
  H      -0.000008      0.000000      1.611074
  H       1.071480      0.000000     -0.474724
  H      -0.535775      0.927949     -0.474712
  H      -0.535775     -0.927949     -0.474712
5
Coordinates from ORCA-job CH4_CASSCF_88 E -39.666595889255
  C      -0.000022     -0.000000     -0.208926
  H      -0.000008      0.000000      1.691074
  H       1.071480      0.000000     -0.494724
  H      -0.535775      0.927949     -0.494712
  H      -0.535775     -0.927949     -0.494712
5
Coordinates from ORCA-job CH4_CASSCF_88 E -39.666633345306
  C      -0.000022     -0.000000     -0.213241
  H      -0.000008      0.000000      1.686759
  H       1.073351      0.000000     -0.491847
  H      -0.536711      0.929569     -0.491835
  H      -0.536711     -0.929569     -0.491835
5
Coordinates from ORCA-job CH4_CASSCF_88 E -39.666644744852
  C      -0.000022     -0.000000     -0.217364
  H      -0.000008      0.000000      1.682636
  H       1.074583      0.000000     -0.489098
  H      -0.537327      0.930636     -0.489086
  H      -0.537327     -0.930636     -0.489086
5
Coordinates from ORCA-job CH4_CASSCF_88 E -39.666644757763
  C      -0.000022     -0.000000     -0.217340
  H      -0.000008      0.000000      1.682660
  H       1.074671      0.000000     -0.489114
  H      -0.537371      0.930713     -0.489103
  H      -0.537371     -0.930713     -0.489103
5
Coordinates from ORCA-job CH4_CASSCF_88 E -39.650952351851
  C      -0.000022     -0.000000     -0.257623
  H      -0.000007      0.000000      1.742377
  H       1.058641     -0.000000     -0.495592
  H      -0.529356      0.916830     -0.495581
  H      -0.529356     -0.916830     -0.495581
5
Coordinates from ORCA-job CH4_CASSCF_88 E -39.652082821320
  C      -0.000022      0.000000     -0.253632
  H      -0.000007      0.000000      1.746368
  H       1.082798     -0.000000     -0.498253
  H      -0.541434      0.937751     -0.498241
  H      -0.541434     -0.937751     -0.498241
5
Coordinates from ORCA-job CH4_CASSCF_88 E -39.652108253851
  C      -0.000022      0.000000     -0.252612
  H      -0.000007     -0.000000      1.747388
  H       1.080077     -0.000000     -0.498933
  H      -0.540074      0.935394     -0.498922
  H      -0.540074     -0.935394     -0.498922
5
Coordinates from ORCA-job CH4_CASSCF_88 E -39.652121596438
  C      -0.000022      0.000000     -0.250608
  H      -0.000007      0.000000      1.749392
  H       1.078468     -0.000000     -0.500269
  H      -0.539269      0.934001     -0.500257
  H      -0.539269     -0.934001     -0.500257
5
Coordinates from ORCA-job CH4_CASSCF_88 E -39.652133229658
  C      -0.000022     -0.000000     -0.247234
  H      -0.000007      0.000000      1.752766
  H       1.077183      0.000000     -0.502518
  H      -0.538627      0.932888     -0.502507
  H      -0.538627     -0.932888     -0.502507
5
Coordinates from ORCA-job CH4_CASSCF_88 E -39.652135708044
  C      -0.000022     -0.000000     -0.245876
  H      -0.000007      0.000000      1.754124
  H       1.077280      0.000000     -0.503424
  H      -0.538675      0.932972     -0.503412
  H      -0.538675     -0.932972     -0.503412
5
Coordinates from ORCA-job CH4_CASSCF_88 E -39.652135942560
  C      -0.000022     -0.000000     -0.245760
  H      -0.000007      0.000000      1.754240
  H       1.077541      0.000000     -0.503501
  H      -0.538806      0.933198     -0.503490
  H      -0.538806     -0.933198     -0.503490
5
Coordinates from ORCA-job CH4_CASSCF_88 E -39.639019660510
  C      -0.000022     -0.000000     -0.285936
  H      -0.000007      0.000000      1.814064
  H       1.061330      0.000000     -0.510050
  H      -0.530701      0.919160     -0.510039
  H      -0.530701     -0.919160     -0.510039
5
Coordinates from ORCA-job CH4_CASSCF_88 E -39.640122999395
  C      -0.000022     -0.000000     -0.282357
  H      -0.000007      0.000000      1.817643
  H       1.085392      0.000000     -0.512437
  H      -0.542731      0.939997     -0.512425
  H      -0.542731     -0.939997     -0.512425
5
Coordinates from ORCA-job CH4_CASSCF_88 E -39.640146729795
  C      -0.000022     -0.000000     -0.281428
  H      -0.000007      0.000000      1.818572
  H       1.082704      0.000000     -0.513056
  H      -0.541387      0.937669     -0.513044
  H      -0.541387     -0.937669     -0.513044
5
Coordinates from ORCA-job CH4_CASSCF_88 E -39.640158000382
  C      -0.000022     -0.000000     -0.279665
  H      -0.000007      0.000000      1.820335
  H       1.081314      0.000000     -0.514231
  H      -0.540693      0.936466     -0.514219
  H      -0.540693     -0.936466     -0.514219
5
Coordinates from ORCA-job CH4_CASSCF_88 E -39.640170673180
  C      -0.000022      0.000000     -0.275968
  H      -0.000007      0.000000      1.824032
  H       1.079854     -0.000000     -0.516696
  H      -0.539963      0.935202     -0.516684
  H      -0.539963     -0.935202     -0.516684
5
Coordinates from ORCA-job CH4_CASSCF_88 E -39.640173737527
  C      -0.000022      0.000000     -0.274331
  H      -0.000007      0.000000      1.825669
  H       1.079884     -0.000000     -0.517787
  H      -0.539978      0.935228     -0.517775
  H      -0.539978     -0.935228     -0.517775
5
Coordinates from ORCA-job CH4_CASSCF_88 E -39.640174103646
  C      -0.000022      0.000000     -0.274127
  H      -0.000007      0.000000      1.825873
  H       1.080186     -0.000000     -0.517923
  H      -0.540129      0.935489     -0.517911
  H      -0.540129     -0.935489     -0.517911
5
Coordinates from ORCA-job CH4_CASSCF_88 E -39.629484287056
  C      -0.000022      0.000000     -0.314198
  H      -0.000006      0.000000      1.885801
  H       1.063842     -0.000000     -0.524542
  H      -0.531957      0.921335     -0.524530
  H      -0.531957     -0.921335     -0.524530
5
Coordinates from ORCA-job CH4_CASSCF_88 E -39.630556885439
  C      -0.000022      0.000000     -0.310992
  H      -0.000006     -0.000000      1.889008
  H       1.087730     -0.000000     -0.526680
  H      -0.543901      0.942023     -0.526668
  H      -0.543901     -0.942023     -0.526668
5
Coordinates from ORCA-job CH4_CASSCF_88 E -39.630579199241
  C      -0.000022      0.000000     -0.310142
  H      -0.000006     -0.000000      1.889858
  H       1.085074     -0.000000     -0.527247
  H      -0.542573      0.939722     -0.527235
  H      -0.542573     -0.939722     -0.527235
5
Coordinates from ORCA-job CH4_CASSCF_88 E -39.630588770364
  C      -0.000022      0.000000     -0.308577
  H      -0.000006     -0.000000      1.891423
  H       1.083861     -0.000000     -0.528290
  H      -0.541966      0.938672     -0.528278
  H      -0.541966     -0.938672     -0.528278
5
Coordinates from ORCA-job CH4_CASSCF_88 E -39.630602362047
  C      -0.000022     -0.000000     -0.304576
  H      -0.000006      0.000000      1.895424
  H       1.082254      0.000000     -0.530957
  H      -0.541163      0.937280     -0.530946
  H      -0.541163     -0.937280     -0.530946
5
Coordinates from ORCA-job CH4_CASSCF_88 E -39.630606161829
  C      -0.000022     -0.000000     -0.302585
  H      -0.000006      0.000000      1.897415
  H       1.082195      0.000000     -0.532284
  H      -0.541133      0.937229     -0.532273
  H      -0.541133     -0.937229     -0.532273
5
Coordinates from ORCA-job CH4_CASSCF_88 E -39.630606725659
  C      -0.000022     -0.000000     -0.302255
  H      -0.000006      0.000000      1.897745
  H       1.082535      0.000000     -0.532504
  H      -0.541303      0.937524     -0.532493
  H      -0.541303     -0.937524     -0.532493
5
Coordinates from ORCA-job CH4_CASSCF_88 E -39.622064085434
  C      -0.000022     -0.000000     -0.342229
  H      -0.000006      0.000000      1.957771
  H       1.066104      0.000000     -0.539189
  H      -0.533088      0.923293     -0.539177
  H      -0.533088     -0.923293     -0.539177
5
Coordinates from ORCA-job CH4_CASSCF_88 E -39.623107621162
  C      -0.000022      0.000000     -0.339356
  H      -0.000006     -0.000000      1.960644
  H       1.089804     -0.000000     -0.541104
  H      -0.544938      0.943819     -0.541092
  H      -0.544938     -0.943819     -0.541092
5
Coordinates from ORCA-job CH4_CASSCF_88 E -39.623128754057
  C      -0.000022      0.000000     -0.338577
  H      -0.000006     -0.000000      1.961423
  H       1.087175     -0.000000     -0.541623
  H      -0.543623      0.941542     -0.541611
  H      -0.543623     -0.941542     -0.541611
5
Coordinates from ORCA-job CH4_CASSCF_88 E -39.623136866503
  C      -0.000022      0.000000     -0.337185
  H      -0.000006     -0.000000      1.962815
  H       1.086118     -0.000000     -0.542551
  H      -0.543095      0.940626     -0.542539
  H      -0.543095     -0.940626     -0.542539
5
Coordinates from ORCA-job CH4_CASSCF_88 E -39.623151201898
  C      -0.000022     -0.000000     -0.332890
  H      -0.000006     -0.000000      1.967110
  H       1.084380      0.000000     -0.545414
  H      -0.542226      0.939122     -0.545403
  H      -0.542226     -0.939122     -0.545403
5
Coordinates from ORCA-job CH4_CASSCF_88 E -39.623155825559
  C      -0.000022     -0.000000     -0.330495
  H      -0.000006     -0.000000      1.969505
  H       1.084212      0.000000     -0.547011
  H      -0.542142      0.938976     -0.547000
  H      -0.542142     -0.938976     -0.547000
5
Coordinates from ORCA-job CH4_CASSCF_88 E -39.623156668309
  C      -0.000022      0.000000     -0.329987
  H      -0.000006     -0.000000      1.970013
  H       1.084585      0.000000     -0.547350
  H      -0.542328      0.939299     -0.547338
  H      -0.542328     -0.939299     -0.547338
5
Coordinates from ORCA-job CH4_CASSCF_88 E -39.623156698818
  C      -0.000022      0.000000     -0.330068
  H      -0.000006     -0.000000      1.969932
  H       1.084713      0.000000     -0.547296
  H      -0.542392      0.939410     -0.547284
  H      -0.542392     -0.939410     -0.547284
5
Coordinates from ORCA-job CH4_CASSCF_88 E -39.616429890129
  C      -0.000023      0.000000     -0.369955
  H      -0.000005     -0.000000      2.030045
  H       1.068237      0.000000     -0.554038
  H      -0.534154      0.925141     -0.554026
  H      -0.534154     -0.925141     -0.554026
5
Coordinates from ORCA-job CH4_CASSCF_88 E -39.617435878632
  C      -0.000023     -0.000000     -0.367377
  H      -0.000005      0.000000      2.032623
  H       1.091627      0.000000     -0.555757
  H      -0.545849      0.945397     -0.555745
  H      -0.545849     -0.945397     -0.555745
5
Coordinates from ORCA-job CH4_CASSCF_88 E -39.617456030403
  C      -0.000023     -0.000000     -0.366655
  H      -0.000005      0.000000      2.033345
  H       1.089026      0.000000     -0.556238
  H      -0.544549      0.943145     -0.556226
  H      -0.544549     -0.943145     -0.556226
5
Coordinates from ORCA-job CH4_CASSCF_88 E -39.617463047335
  C      -0.000023     -0.000000     -0.365394
  H      -0.000005      0.000000      2.034606
  H       1.088091      0.000000     -0.557078
  H      -0.544082      0.942336     -0.557066
  H      -0.544082     -0.942336     -0.557066
5
Coordinates from ORCA-job CH4_CASSCF_88 E -39.617478132261
  C      -0.000023      0.000000     -0.360793
  H      -0.000005      0.000000      2.039207
  H       1.086233     -0.000000     -0.560146
  H      -0.543153      0.940726     -0.560134
  H      -0.543153     -0.940726     -0.560134
5
Coordinates from ORCA-job CH4_CASSCF_88 E -39.617483715511
  C      -0.000023      0.000000     -0.357930
  H      -0.000005      0.000000      2.042070
  H       1.085935     -0.000000     -0.562055
  H      -0.543003      0.940468     -0.562043
  H      -0.543003     -0.940468     -0.562043
5
Coordinates from ORCA-job CH4_CASSCF_88 E -39.617484978760
  C      -0.000023      0.000000     -0.357158
  H      -0.000005      0.000000      2.042842
  H       1.086336     -0.000000     -0.562569
  H      -0.543204      0.940815     -0.562558
  H      -0.543204     -0.940815     -0.562558
5
Coordinates from ORCA-job CH4_CASSCF_88 E -39.617485036006
  C      -0.000023     -0.000000     -0.357265
  H      -0.000005      0.000000      2.042735
  H       1.086508     -0.000000     -0.562498
  H      -0.543290      0.940964     -0.562486
  H      -0.543290     -0.940964     -0.562486
5
Coordinates from ORCA-job CH4_CASSCF_88 E -39.612219285442
  C      -0.000023     -0.000000     -0.397082
  H      -0.000005      0.000000      2.102918
  H       1.070026     -0.000000     -0.569286
  H      -0.535049      0.926691     -0.569275
  H      -0.535049     -0.926691     -0.569275
5
Coordinates from ORCA-job CH4_CASSCF_88 E -39.613196551082
  C      -0.000023      0.000000     -0.394762
  H      -0.000005      0.000000      2.105238
  H       1.093183     -0.000000     -0.570833
  H      -0.546627      0.946745     -0.570821
  H      -0.546627     -0.946745     -0.570821
5
Coordinates from ORCA-job CH4_CASSCF_88 E -39.613215889427
  C      -0.000023     -0.000000     -0.394097
  H      -0.000005      0.000000      2.105903
  H       1.090601     -0.000000     -0.571277
  H      -0.545337      0.944509     -0.571265
  H      -0.545337     -0.944509     -0.571265
5
Coordinates from ORCA-job CH4_CASSCF_88 E -39.613221863107
  C      -0.000023     -0.000000     -0.392965
  H      -0.000005      0.000000      2.107035
  H       1.089781     -0.000000     -0.572031
  H      -0.544927      0.943799     -0.572019
  H      -0.544927     -0.943799     -0.572019
5
Coordinates from ORCA-job CH4_CASSCF_88 E -39.613237321124
  C      -0.000023     -0.000000     -0.388108
  H      -0.000005      0.000000      2.111892
  H       1.087831      0.000000     -0.575269
  H      -0.543952      0.942110     -0.575258
  H      -0.543952     -0.942110     -0.575258
5
Coordinates from ORCA-job CH4_CASSCF_88 E -39.613243850077
  C      -0.000023     -0.000000     -0.384746
  H      -0.000005     -0.000000      2.115254
  H       1.087391      0.000000     -0.577510
  H      -0.543732      0.941729     -0.577499
  H      -0.543732     -0.941729     -0.577499
5
Coordinates from ORCA-job CH4_CASSCF_88 E -39.613245620354
  C      -0.000023     -0.000000     -0.383653
  H      -0.000005     -0.000000      2.116347
  H       1.087797      0.000000     -0.578239
  H      -0.543935      0.942081     -0.578228
  H      -0.543935     -0.942081     -0.578228
5
Coordinates from ORCA-job CH4_CASSCF_88 E -39.613245722300
  C      -0.000023     -0.000000     -0.383778
  H      -0.000005      0.000000      2.116222
  H       1.088023      0.000000     -0.578156
  H      -0.544048      0.942277     -0.578144
  H      -0.544048     -0.942277     -0.578144
