5
Coordinates from ORCA-job CH4_CASSCF E -38.712792759790
  C      -0.000000     -0.000000      0.118000
  H      -0.000004      0.000000      0.618000
  H       1.029501      0.000000     -0.245996
  H      -0.514799      0.891600     -0.246002
  H      -0.514799     -0.891600     -0.246002
5
Coordinates from ORCA-job CH4_CASSCF E -38.713678027026
  C      -0.000016     -0.000000      0.127825
  H      -0.000019     -0.000000      0.627825
  H       1.010297     -0.000000     -0.252559
  H      -0.505181      0.874939     -0.252546
  H      -0.505181     -0.874939     -0.252546
5
Coordinates from ORCA-job CH4_CASSCF E -38.713919810093
  C      -0.000019     -0.000000      0.138266
  H      -0.000018     -0.000000      0.638266
  H       1.005290     -0.000000     -0.259520
  H      -0.502676      0.870621     -0.259506
  H      -0.502676     -0.870621     -0.259506
5
Coordinates from ORCA-job CH4_CASSCF E -38.713934166076
  C      -0.000022     -0.000000      0.141160
  H      -0.000019     -0.000000      0.641160
  H       1.004704     -0.000000     -0.261450
  H      -0.502382      0.870110     -0.261435
  H      -0.502382     -0.870110     -0.261435
5
Coordinates from ORCA-job CH4_CASSCF E -38.713934173176
  C      -0.000023     -0.000000      0.141225
  H      -0.000020     -0.000000      0.641225
  H       1.004696     -0.000000     -0.261495
  H      -0.502377      0.870100     -0.261478
  H      -0.502377     -0.870100     -0.261478
5
Coordinates from ORCA-job CH4_CASSCF E -39.205850506107
  C      -0.000023     -0.000000      0.121225
  H      -0.000019     -0.000000      0.721225
  H       1.004696     -0.000000     -0.281494
  H      -0.502377      0.870100     -0.281478
  H      -0.502377     -0.870100     -0.281478
5
Coordinates from ORCA-job CH4_CASSCF E -39.205858378515
  C      -0.000033     -0.000000      0.121049
  H      -0.000030     -0.000000      0.721049
  H       1.007040     -0.000000     -0.281386
  H      -0.503539      0.872097     -0.281356
  H      -0.503539     -0.872097     -0.281356
5
Coordinates from ORCA-job CH4_CASSCF E -39.205859193786
  C      -0.000018      0.000000      0.120694
  H      -0.000011      0.000000      0.720694
  H       1.006842      0.000000     -0.281134
  H      -0.503456      0.871979     -0.281127
  H      -0.503456     -0.871979     -0.281127
5
Coordinates from ORCA-job CH4_CASSCF E -39.481868859629
  C      -0.000019      0.000000      0.100694
  H      -0.000011      0.000000      0.800694
  H       1.006842      0.000000     -0.301134
  H      -0.503457      0.871979     -0.301127
  H      -0.503457     -0.871979     -0.301127
5
Coordinates from ORCA-job CH4_CASSCF E -39.481881408175
  C      -0.000018      0.000000      0.100131
  H      -0.000011      0.000000      0.800131
  H       1.009706      0.000000     -0.300759
  H      -0.504889      0.874458     -0.300752
  H      -0.504889     -0.874458     -0.300752
5
Coordinates from ORCA-job CH4_CASSCF E -39.481882987359
  C      -0.000015      0.000000      0.099540
  H      -0.000009      0.000000      0.799540
  H       1.009671      0.000000     -0.300363
  H      -0.504873      0.874436     -0.300359
  H      -0.504873     -0.874436     -0.300359
5
Coordinates from ORCA-job CH4_CASSCF E -39.481883279574
  C      -0.000011      0.000000      0.099123
  H      -0.000007      0.000000      0.799123
  H       1.009801      0.000000     -0.300082
  H      -0.504941      0.874558     -0.300082
  H      -0.504941     -0.874558     -0.300082
5
Coordinates from ORCA-job CH4_CASSCF E -39.632949785140
  C      -0.000012      0.000000      0.079123
  H      -0.000006      0.000000      0.879123
  H       1.009801      0.000000     -0.320082
  H      -0.504942      0.874558     -0.320082
  H      -0.504942     -0.874558     -0.320082
5
Coordinates from ORCA-job CH4_CASSCF E -39.632964977319
  C      -0.000020     -0.000000      0.078316
  H      -0.000018     -0.000000      0.878316
  H       1.012946     -0.000000     -0.319556
  H      -0.506504      0.877245     -0.319538
  H      -0.506504     -0.877245     -0.319538
5
Coordinates from ORCA-job CH4_CASSCF E -39.632966935257
  C      -0.000020      0.000000      0.077605
  H      -0.000015     -0.000000      0.877605
  H       1.012961     -0.000000     -0.319079
  H      -0.506513      0.877265     -0.319065
  H      -0.506513     -0.877265     -0.319065
5
Coordinates from ORCA-job CH4_CASSCF E -39.632967206228
  C      -0.000021     -0.000000      0.077198
  H      -0.000015     -0.000000      0.877199
  H       1.013073     -0.000000     -0.318809
  H      -0.506568      0.877360     -0.318794
  H      -0.506568     -0.877360     -0.318794
5
Coordinates from ORCA-job CH4_CASSCF E -39.710198969849
  C      -0.000022     -0.000000      0.057198
  H      -0.000014     -0.000000      0.957198
  H       1.013073     -0.000000     -0.338809
  H      -0.506568      0.877360     -0.338794
  H      -0.506568     -0.877360     -0.338794
5
Coordinates from ORCA-job CH4_CASSCF E -39.710218075117
  C      -0.000027     -0.000000      0.055817
  H      -0.000019     -0.000000      0.955817
  H       1.016303     -0.000000     -0.337893
  H      -0.508179      0.880140     -0.337871
  H      -0.508179     -0.880140     -0.337871
5
Coordinates from ORCA-job CH4_CASSCF E -39.710221055448
  C      -0.000029     -0.000000      0.054740
  H      -0.000021     -0.000000      0.954740
  H       1.016581     -0.000000     -0.337177
  H      -0.508316      0.880374     -0.337152
  H      -0.508316     -0.880374     -0.337152
5
Coordinates from ORCA-job CH4_CASSCF E -39.710221255979
  C      -0.000015      0.000000      0.054386
  H      -0.000003      0.000000      0.954386
  H       1.016603      0.000000     -0.336923
  H      -0.508342      0.880449     -0.336924
  H      -0.508342     -0.880449     -0.336924
5
Coordinates from ORCA-job CH4_CASSCF E -39.743335747617
  C      -0.000015      0.000000      0.034386
  H      -0.000002      0.000000      1.034386
  H       1.016602      0.000000     -0.356923
  H      -0.508342      0.880449     -0.356924
  H      -0.508342     -0.880449     -0.356924
5
Coordinates from ORCA-job CH4_CASSCF E -39.743359850494
  C      -0.000018      0.000000      0.032399
  H      -0.000010      0.000000      1.032399
  H       1.019827      0.000000     -0.355606
  H      -0.509950      0.883222     -0.355596
  H      -0.509950     -0.883222     -0.355596
5
Coordinates from ORCA-job CH4_CASSCF E -39.743364064642
  C      -0.000011      0.000000      0.030846
  H      -0.000005      0.000000      1.030846
  H       1.020338      0.000000     -0.354564
  H      -0.510212      0.883688     -0.354564
  H      -0.510212     -0.883688     -0.354564
5
Coordinates from ORCA-job CH4_CASSCF E -39.743364113807
  C      -0.000022     -0.000000      0.030695
  H      -0.000018     -0.000000      1.030695
  H       1.020358     -0.000000     -0.354478
  H      -0.510209      0.883659     -0.354456
  H      -0.510209     -0.883659     -0.354456
5
Coordinates from ORCA-job CH4_CASSCF E -39.749796022566
  C      -0.000022     -0.000000      0.010695
  H      -0.000017     -0.000000      1.110695
  H       1.020358     -0.000000     -0.374478
  H      -0.510209      0.883659     -0.374456
  H      -0.510209     -0.883659     -0.374456
5
Coordinates from ORCA-job CH4_CASSCF E -39.749825196647
  C      -0.000021     -0.000000      0.008175
  H      -0.000013      0.000000      1.108175
  H       1.023488     -0.000000     -0.372793
  H      -0.511777      0.886382     -0.372779
  H      -0.511777     -0.886382     -0.372779
5
Coordinates from ORCA-job CH4_CASSCF E -39.749830406159
  C      -0.000027     -0.000000      0.006238
  H      -0.000017     -0.000000      1.106238
  H       1.024163     -0.000000     -0.371507
  H      -0.512109      0.886947     -0.371484
  H      -0.512109     -0.886947     -0.371484
5
Coordinates from ORCA-job CH4_CASSCF E -39.749830449867
  C      -0.000029     -0.000000      0.006276
  H      -0.000018     -0.000000      1.106276
  H       1.024151     -0.000000     -0.371534
  H      -0.512102      0.886930     -0.371509
  H      -0.512102     -0.886930     -0.371509
5
Coordinates from ORCA-job CH4_CASSCF E -39.739929625906
  C      -0.000029     -0.000000     -0.013724
  H      -0.000017     -0.000000      1.186276
  H       1.024151     -0.000000     -0.391534
  H      -0.512102      0.886930     -0.391509
  H      -0.512102     -0.886930     -0.391509
5
Coordinates from ORCA-job CH4_CASSCF E -39.739962359736
  C      -0.000019      0.000000     -0.016634
  H      -0.000006      0.000000      1.183366
  H       1.027141      0.000000     -0.389580
  H      -0.513608      0.889563     -0.389576
  H      -0.513608     -0.889563     -0.389576
5
Coordinates from ORCA-job CH4_CASSCF E -39.739968092243
  C      -0.000020      0.000000     -0.018790
  H      -0.000011      0.000000      1.181210
  H       1.027857      0.000000     -0.388147
  H      -0.513963      0.890173     -0.388136
  H      -0.513963     -0.890173     -0.388136
5
Coordinates from ORCA-job CH4_CASSCF E -39.739968112040
  C      -0.000017      0.000000     -0.018705
  H      -0.000009      0.000000      1.181295
  H       1.027888      0.000000     -0.388201
  H      -0.513981      0.890208     -0.388195
  H      -0.513981     -0.890208     -0.388195
5
Coordinates from ORCA-job CH4_CASSCF E -39.720068417746
  C      -0.000017      0.000000     -0.038705
  H      -0.000008      0.000000      1.261295
  H       1.027888      0.000000     -0.408201
  H      -0.513981      0.890208     -0.408194
  H      -0.513981     -0.890208     -0.408194
5
Coordinates from ORCA-job CH4_CASSCF E -39.720101958277
  C      -0.000009      0.000000     -0.041823
  H      -0.000002      0.000000      1.258177
  H       1.030720      0.000000     -0.406114
  H      -0.515405      0.892689     -0.406120
  H      -0.515405     -0.892689     -0.406120
5
Coordinates from ORCA-job CH4_CASSCF E -39.720107769466
  C      -0.000027     -0.000000     -0.044055
  H      -0.000021     -0.000000      1.255945
  H       1.031484     -0.000000     -0.404651
  H      -0.515768      0.893273     -0.404620
  H      -0.515768     -0.893273     -0.404620
5
Coordinates from ORCA-job CH4_CASSCF E -39.720107805802
  C      -0.000020      0.000000     -0.043958
  H      -0.000009      0.000000      1.256042
  H       1.031525      0.000000     -0.404700
  H      -0.515798      0.893351     -0.404691
  H      -0.515798     -0.893351     -0.404691
5
Coordinates from ORCA-job CH4_CASSCF E -39.694239361770
  C      -0.000020      0.000000     -0.063958
  H      -0.000008      0.000000      1.336042
  H       1.031525      0.000000     -0.424700
  H      -0.515798      0.893351     -0.424691
  H      -0.515798     -0.893351     -0.424691
5
Coordinates from ORCA-job CH4_CASSCF E -39.694272857323
  C      -0.000026     -0.000000     -0.067223
  H      -0.000014     -0.000000      1.332777
  H       1.034247     -0.000000     -0.422533
  H      -0.517153      0.895682     -0.422511
  H      -0.517153     -0.895682     -0.422511
5
Coordinates from ORCA-job CH4_CASSCF E -39.694278501194
  C      -0.000036     -0.000000     -0.069449
  H      -0.000020     -0.000000      1.330551
  H       1.034945     -0.000000     -0.421057
  H      -0.517495      0.896256     -0.421023
  H      -0.517495     -0.896256     -0.421023
5
Coordinates from ORCA-job CH4_CASSCF E -39.694278543419
  C      -0.000018      0.000000     -0.069376
  H      -0.000003      0.000000      1.330624
  H       1.035000      0.000000     -0.421083
  H      -0.517539      0.896375     -0.421082
  H      -0.517539     -0.896375     -0.421082
5
Coordinates from ORCA-job CH4_CASSCF E -39.665083377764
  C      -0.000019      0.000000     -0.089376
  H      -0.000003      0.000000      1.410624
  H       1.035000      0.000000     -0.441083
  H      -0.517539      0.896375     -0.441082
  H      -0.517539     -0.896375     -0.441082
5
Coordinates from ORCA-job CH4_CASSCF E -39.665116170871
  C      -0.000018      0.000000     -0.092732
  H      -0.000006      0.000000      1.407268
  H       1.037578      0.000000     -0.438850
  H      -0.518827      0.898600     -0.438843
  H      -0.518827     -0.898600     -0.438843
5
Coordinates from ORCA-job CH4_CASSCF E -39.665121694143
  C      -0.000007      0.000000     -0.094993
  H       0.000000      0.000000      1.405007
  H       1.038222      0.000000     -0.437333
  H      -0.519157      0.899194     -0.437340
  H      -0.519157     -0.899194     -0.437340
5
Coordinates from ORCA-job CH4_CASSCF E -39.665121738625
  C      -0.000023     -0.000000     -0.094911
  H      -0.000013     -0.000000      1.405089
  H       1.038368     -0.000000     -0.437407
  H      -0.519216      0.899258     -0.437385
  H      -0.519216     -0.899258     -0.437385
5
Coordinates from ORCA-job CH4_CASSCF E -39.634359585838
  C      -0.000023     -0.000000     -0.114911
  H      -0.000013     -0.000000      1.485089
  H       1.038368     -0.000000     -0.457407
  H      -0.519216      0.899258     -0.457386
  H      -0.519216     -0.899258     -0.457386
5
Coordinates from ORCA-job CH4_CASSCF E -39.634391252671
  C      -0.000022     -0.000000     -0.118322
  H      -0.000009      0.000000      1.481678
  H       1.040819     -0.000000     -0.455128
  H      -0.520444      0.901392     -0.455114
  H      -0.520444     -0.901392     -0.455114
5
Coordinates from ORCA-job CH4_CASSCF E -39.634396643857
  C      -0.000029     -0.000000     -0.120611
  H      -0.000013     -0.000000      1.479389
  H       1.041486     -0.000000     -0.453609
  H      -0.520772      0.901946     -0.453584
  H      -0.520772     -0.901946     -0.453584
5
Coordinates from ORCA-job CH4_CASSCF E -39.634396686685
  C      -0.000020      0.000000     -0.120524
  H      -0.000006      0.000000      1.479476
  H       1.041570      0.000000     -0.453656
  H      -0.520821      0.902052     -0.453648
  H      -0.520821     -0.902052     -0.453648
5
Coordinates from ORCA-job CH4_CASSCF E -39.603256289702
  C      -0.000021      0.000000     -0.140524
  H      -0.000006      0.000000      1.559476
  H       1.041570      0.000000     -0.473656
  H      -0.520822      0.902052     -0.473648
  H      -0.520822     -0.902052     -0.473648
5
Coordinates from ORCA-job CH4_CASSCF E -39.603286590544
  C      -0.000025     -0.000000     -0.143963
  H      -0.000010      0.000000      1.556037
  H       1.043933     -0.000000     -0.471369
  H      -0.521999      0.904081     -0.471352
  H      -0.521999     -0.904081     -0.471352
5
Coordinates from ORCA-job CH4_CASSCF E -39.603291846131
  C      -0.000030     -0.000000     -0.146263
  H      -0.000013     -0.000000      1.553737
  H       1.044572     -0.000000     -0.469841
  H      -0.522315      0.904616     -0.469817
  H      -0.522315     -0.904616     -0.469817
5
Coordinates from ORCA-job CH4_CASSCF E -39.603291887478
  C      -0.000021      0.000000     -0.146184
  H      -0.000006      0.000000      1.553816
  H       1.044657      0.000000     -0.469883
  H      -0.522365      0.904726     -0.469875
  H      -0.522365     -0.904726     -0.469875
5
Coordinates from ORCA-job CH4_CASSCF E -39.572594477530
  C      -0.000021      0.000000     -0.166184
  H      -0.000005      0.000000      1.633816
  H       1.044657      0.000000     -0.489883
  H      -0.522365      0.904726     -0.489875
  H      -0.522365     -0.904726     -0.489875
5
Coordinates from ORCA-job CH4_CASSCF E -39.572623324495
  C      -0.000027     -0.000000     -0.169634
  H      -0.000010      0.000000      1.630366
  H       1.046923     -0.000000     -0.487591
  H      -0.523493      0.906663     -0.487570
  H      -0.523493     -0.906663     -0.487570
5
Coordinates from ORCA-job CH4_CASSCF E -39.572628473404
  C      -0.000036     -0.000000     -0.171935
  H      -0.000015     -0.000000      1.628065
  H       1.047543     -0.000000     -0.486065
  H      -0.523796      0.907169     -0.486032
  H      -0.523796     -0.907169     -0.486032
5
Coordinates from ORCA-job CH4_CASSCF E -39.572628509443
  C      -0.000019      0.000000     -0.171932
  H      -0.000002      0.000000      1.628068
  H       1.047635      0.000000     -0.486047
  H      -0.523857      0.907316     -0.486044
  H      -0.523857     -0.907316     -0.486044
5
Coordinates from ORCA-job CH4_CASSCF E -39.542955869770
  C      -0.000019      0.000000     -0.191932
  H      -0.000001      0.000000      1.708068
  H       1.047634      0.000000     -0.506047
  H      -0.523857      0.907316     -0.506044
  H      -0.523857     -0.907316     -0.506044
5
Coordinates from ORCA-job CH4_CASSCF E -39.542982664466
  C      -0.000019      0.000000     -0.195351
  H      -0.000004      0.000000      1.704649
  H       1.049771      0.000000     -0.503771
  H      -0.524924      0.909162     -0.503764
  H      -0.524924     -0.909162     -0.503764
5
Coordinates from ORCA-job CH4_CASSCF E -39.542987667914
  C      -0.000012      0.000000     -0.197625
  H       0.000000      0.000000      1.702375
  H       1.050317      0.000000     -0.502248
  H      -0.525203      0.909658     -0.502251
  H      -0.525203     -0.909658     -0.502251
5
Coordinates from ORCA-job CH4_CASSCF E -39.542987703446
  C      -0.000024     -0.000000     -0.197684
  H      -0.000009      0.000000      1.702316
  H       1.050506     -0.000000     -0.502224
  H      -0.525287      0.909773     -0.502204
  H      -0.525287     -0.909773     -0.502204
5
Coordinates from ORCA-job CH4_CASSCF E -39.513231933516
  C      -0.000024     -0.000000     -0.238437
  H      -0.000008      0.000000      1.761563
  H       1.034474     -0.000000     -0.508388
  H      -0.517271      0.895889     -0.508369
  H      -0.517271     -0.895889     -0.508369
5
Coordinates from ORCA-job CH4_CASSCF E -39.514662115605
  C      -0.000023     -0.000000     -0.232662
  H      -0.000008      0.000000      1.767338
  H       1.060928     -0.000000     -0.512237
  H      -0.530499      0.918804     -0.512220
  H      -0.530499     -0.918804     -0.512220
5
Coordinates from ORCA-job CH4_CASSCF E -39.514729847969
  C      -0.000032     -0.000000     -0.231186
  H      -0.000011      0.000000      1.768814
  H       1.056676     -0.000000     -0.513227
  H      -0.528367      0.915092     -0.513200
  H      -0.528367     -0.915092     -0.513200
5
Coordinates from ORCA-job CH4_CASSCF E -39.514761041864
  C      -0.000016      0.000000     -0.228289
  H      -0.000003      0.000000      1.771711
  H       1.054133      0.000000     -0.515144
  H      -0.527107      0.912948     -0.515139
  H      -0.527107     -0.912948     -0.515139
5
Coordinates from ORCA-job CH4_CASSCF E -39.514779386068
  C      -0.000022      0.000000     -0.224602
  H      -0.000005      0.000000      1.775398
  H       1.052735      0.000000     -0.517607
  H      -0.526404      0.911717     -0.517594
  H      -0.526404     -0.911717     -0.517594
5
Coordinates from ORCA-job CH4_CASSCF E -39.514782063815
  C      -0.000013      0.000000     -0.223518
  H      -0.000001      0.000000      1.776481
  H       1.052944      0.000000     -0.518321
  H      -0.526515      0.911929     -0.518321
  H      -0.526515     -0.911929     -0.518321
5
Coordinates from ORCA-job CH4_CASSCF E -39.514782304040
  C      -0.000013      0.000000     -0.223570
  H      -0.000002      0.000000      1.776430
  H       1.053201      0.000000     -0.518288
  H      -0.526643      0.912154     -0.518286
  H      -0.526643     -0.912154     -0.518286
5
Coordinates from ORCA-job CH4_CASSCF E -39.486763927689
  C      -0.000013      0.000000     -0.264295
  H      -0.000002      0.000000      1.835705
  H       1.036999      0.000000     -0.524472
  H      -0.518542      0.898122     -0.524469
  H      -0.518542     -0.898122     -0.524469
5
Coordinates from ORCA-job CH4_CASSCF E -39.488172805237
  C      -0.000025     -0.000000     -0.258839
  H      -0.000004      0.000000      1.841161
  H       1.063510     -0.000000     -0.528115
  H      -0.531790      0.921040     -0.528103
  H      -0.531790     -0.921040     -0.528103
5
Coordinates from ORCA-job CH4_CASSCF E -39.488239260905
  C      -0.000024      0.000000     -0.257391
  H      -0.000004      0.000000      1.842609
  H       1.059258      0.000000     -0.529080
  H      -0.529665      0.917361     -0.529069
  H      -0.529665     -0.917361     -0.529069
5
Coordinates from ORCA-job CH4_CASSCF E -39.488269245808
  C      -0.000026      0.000000     -0.254610
  H      -0.000005      0.000000      1.845390
  H       1.056902      0.000000     -0.530936
  H      -0.528485      0.915313     -0.530922
  H      -0.528485     -0.915313     -0.530922
5
Coordinates from ORCA-job CH4_CASSCF E -39.488289774713
  C      -0.000035      0.000000     -0.250621
  H      -0.000010      0.000000      1.849379
  H       1.055367      0.000000     -0.533604
  H      -0.527711      0.913950     -0.533577
  H      -0.527711     -0.913950     -0.533577
5
Coordinates from ORCA-job CH4_CASSCF E -39.488293037332
  C      -0.000016     -0.000000     -0.249256
  H      -0.000001     -0.000000      1.850744
  H       1.055479     -0.000000     -0.534497
  H      -0.527781      0.914117     -0.534495
  H      -0.527781     -0.914117     -0.534495
5
Coordinates from ORCA-job CH4_CASSCF E -39.488293258335
  C      -0.000022     -0.000000     -0.249248
  H      -0.000004      0.000000      1.850752
  H       1.055772     -0.000000     -0.534509
  H      -0.527923      0.914347     -0.534498
  H      -0.527923     -0.914347     -0.534498
5
Coordinates from ORCA-job CH4_CASSCF E -39.462195187752
  C      -0.000023     -0.000000     -0.289948
  H      -0.000004      0.000000      1.910052
  H       1.039441     -0.000000     -0.540708
  H      -0.519757      0.900204     -0.540698
  H      -0.519757     -0.900204     -0.540698
5
Coordinates from ORCA-job CH4_CASSCF E -39.463573688256
  C      -0.000012     -0.000000     -0.284849
  H       0.000001     -0.000000      1.915151
  H       1.065851     -0.000000     -0.544100
  H      -0.532970      0.923112     -0.544101
  H      -0.532970     -0.923112     -0.544101
5
Coordinates from ORCA-job CH4_CASSCF E -39.463637659948
  C      -0.000023      0.000000     -0.283471
  H      -0.000004      0.000000      1.916529
  H       1.061656     -0.000000     -0.545027
  H      -0.530864      0.919441     -0.545015
  H      -0.530864     -0.919441     -0.545015
5
Coordinates from ORCA-job CH4_CASSCF E -39.463665289546
  C      -0.000028      0.000000     -0.280832
  H      -0.000006      0.000000      1.919168
  H       1.059446      0.000000     -0.546791
  H      -0.529756      0.917511     -0.546773
  H      -0.529756     -0.917511     -0.546773
5
Coordinates from ORCA-job CH4_CASSCF E -39.463686898392
  C      -0.000037     -0.000000     -0.276681
  H      -0.000010      0.000000      1.923319
  H       1.057847     -0.000000     -0.549566
  H      -0.528950      0.916093     -0.549536
  H      -0.528950     -0.916093     -0.549536
5
Coordinates from ORCA-job CH4_CASSCF E -39.463690780373
  C      -0.000017      0.000000     -0.275092
  H      -0.000001      0.000000      1.924908
  H       1.057913      0.000000     -0.550608
  H      -0.528997      0.916220     -0.550604
  H      -0.528997     -0.916220     -0.550604
5
Coordinates from ORCA-job CH4_CASSCF E -39.463691062552
  C      -0.000022     -0.000000     -0.275069
  H      -0.000004      0.000000      1.924931
  H       1.058231     -0.000000     -0.550628
  H      -0.529152      0.916478     -0.550617
  H      -0.529152     -0.916478     -0.550617
5
Coordinates from ORCA-job CH4_CASSCF E -39.439590377337
  C      -0.000023     -0.000000     -0.315736
  H      -0.000003      0.000000      1.984264
  H       1.041804     -0.000000     -0.556850
  H      -0.520939      0.902252     -0.556839
  H      -0.520939     -0.902252     -0.556839
5
Coordinates from ORCA-job CH4_CASSCF E -39.440936706594
  C      -0.000012      0.000000     -0.310966
  H       0.000001      0.000000      1.989034
  H       1.068109      0.000000     -0.560021
  H      -0.534099      0.925071     -0.560023
  H      -0.534099     -0.925071     -0.560023
5
Coordinates from ORCA-job CH4_CASSCF E -39.440998581957
  C      -0.000024     -0.000000     -0.309646
  H      -0.000004      0.000000      1.990354
  H       1.063948     -0.000000     -0.560911
  H      -0.532010      0.921426     -0.560899
  H      -0.532010     -0.921426     -0.560899
5
Coordinates from ORCA-job CH4_CASSCF E -39.441024237926
  C      -0.000028     -0.000000     -0.307147
  H      -0.000006      0.000000      1.992853
  H       1.061887     -0.000000     -0.562581
  H      -0.530977      0.919624     -0.562563
  H      -0.530977     -0.919624     -0.562563
5
Coordinates from ORCA-job CH4_CASSCF E -39.441047370374
  C      -0.000038      0.000000     -0.302741
  H      -0.000010      0.000000      1.997259
  H       1.060175      0.000000     -0.565526
  H      -0.530113      0.918105     -0.565496
  H      -0.530113     -0.918105     -0.565496
5
Coordinates from ORCA-job CH4_CASSCF E -39.441051775393
  C      -0.000042      0.000000     -0.301342
  H      -0.000011      0.000000      1.998658
  H       1.060400      0.000000     -0.566461
  H      -0.530223      0.918285     -0.566427
  H      -0.530223     -0.918285     -0.566427
5
Coordinates from ORCA-job CH4_CASSCF E -39.441052252351
  C      -0.000008     -0.000000     -0.300717
  H       0.000003      0.000000      1.999283
  H       1.060497     -0.000000     -0.566850
  H      -0.530296      0.918490     -0.566858
  H      -0.530296     -0.918490     -0.566858
5
Coordinates from ORCA-job CH4_CASSCF E -39.418959155116
  C      -0.000008     -0.000000     -0.341351
  H       0.000003      0.000000      2.058649
  H       1.044009     -0.000000     -0.573095
  H      -0.522052      0.904211     -0.573101
  H      -0.522052     -0.904211     -0.573101
5
Coordinates from ORCA-job CH4_CASSCF E -39.420267041031
  C      -0.000015     -0.000000     -0.336926
  H       0.000001      0.000000      2.063074
  H       1.070180     -0.000000     -0.576049
  H      -0.535133      0.926855     -0.576049
  H      -0.535133     -0.926855     -0.576049
5
Coordinates from ORCA-job CH4_CASSCF E -39.420326213901
  C      -0.000024     -0.000000     -0.335687
  H      -0.000003      0.000000      2.064313
  H       1.066052     -0.000000     -0.576883
  H      -0.533063      0.923248     -0.576872
  H      -0.533063     -0.923248     -0.576872
5
Coordinates from ORCA-job CH4_CASSCF E -39.420349063965
  C      -0.000027     -0.000000     -0.333384
  H      -0.000004      0.000000      2.066616
  H       1.064175     -0.000000     -0.578420
  H      -0.532122      0.921612     -0.578406
  H      -0.532122     -0.921612     -0.578406
5
Coordinates from ORCA-job CH4_CASSCF E -39.420373072298
  C      -0.000036     -0.000000     -0.328738
  H      -0.000008      0.000000      2.071262
  H       1.062342     -0.000000     -0.581525
  H      -0.531199      0.919991     -0.581499
  H      -0.531199     -0.919991     -0.581499
5
Coordinates from ORCA-job CH4_CASSCF E -39.420378066668
  C      -0.000018      0.000000     -0.326794
  H      -0.000000      0.000000      2.073206
  H       1.062347      0.000000     -0.582807
  H      -0.531214      0.920059     -0.582803
  H      -0.531214     -0.920059     -0.582803
5
Coordinates from ORCA-job CH4_CASSCF E -39.420378561565
  C      -0.000021     -0.000000     -0.326628
  H      -0.000002      0.000000      2.073372
  H       1.062710     -0.000000     -0.582920
  H      -0.531393      0.920362     -0.582912
  H      -0.531393     -0.920362     -0.582912
5
Coordinates from ORCA-job CH4_CASSCF E -39.400230346608
  C      -0.000022     -0.000000     -0.367215
  H      -0.000001      0.000000      2.132785
  H       1.046187     -0.000000     -0.589196
  H      -0.523132      0.906053     -0.589187
  H      -0.523132     -0.906053     -0.589187
5
Coordinates from ORCA-job CH4_CASSCF E -39.401506235133
  C      -0.000007      0.000000     -0.363078
  H       0.000004      0.000000      2.136922
  H       1.072155      0.000000     -0.591943
  H      -0.536126      0.928592     -0.591951
  H      -0.536126     -0.928592     -0.591951
5
Coordinates from ORCA-job CH4_CASSCF E -39.401563553545
  C      -0.000024     -0.000000     -0.361901
  H      -0.000003      0.000000      2.138098
  H       1.068079     -0.000000     -0.592740
  H      -0.534076      0.925004     -0.592728
  H      -0.534076     -0.925004     -0.592728
5
Coordinates from ORCA-job CH4_CASSCF E -39.401584836325
  C      -0.000029     -0.000000     -0.359713
  H      -0.000004      0.000000      2.140287
  H       1.066321     -0.000000     -0.594203
  H      -0.533194      0.923465     -0.594186
  H      -0.533194     -0.923465     -0.594186
5
Coordinates from ORCA-job CH4_CASSCF E -39.401610211881
  C      -0.000040      0.000000     -0.354855
  H      -0.000009      0.000000      2.145145
  H       1.064410      0.000000     -0.597451
  H      -0.532231      0.921768     -0.597419
  H      -0.532231     -0.921768     -0.597419
5
Coordinates from ORCA-job CH4_CASSCF E -39.401616154741
  C      -0.000018     -0.000000     -0.352594
  H      -0.000001      0.000000      2.147406
  H       1.064335     -0.000000     -0.598941
  H      -0.532209      0.921782     -0.598936
  H      -0.532209     -0.921782     -0.598936
5
Coordinates from ORCA-job CH4_CASSCF E -39.401616806601
  C      -0.000021     -0.000000     -0.352375
  H      -0.000002      0.000000      2.147625
  H       1.064734     -0.000000     -0.599089
  H      -0.532406      0.922117     -0.599080
  H      -0.532406     -0.922117     -0.599080
