5
Coordinates from ORCA-job CH4_HF E -38.688430870574
  C      -0.000000     -0.000000      0.118000
  H      -0.000004      0.000000      0.618000
  H       1.029501      0.000000     -0.245996
  H      -0.514799      0.891600     -0.246002
  H      -0.514799     -0.891600     -0.246002
5
Coordinates from ORCA-job CH4_HF E -38.689490036691
  C      -0.000017     -0.000000      0.121120
  H      -0.000020      0.000000      0.621120
  H       1.002039      0.000000     -0.248089
  H      -0.501051      0.867788     -0.248075
  H      -0.501051     -0.867788     -0.248075
5
Coordinates from ORCA-job CH4_HF E -38.689644417243
  C      -0.000016     -0.000000      0.125916
  H      -0.000016      0.000000      0.625916
  H       1.004608      0.000000     -0.251284
  H      -0.502338      0.870032     -0.251274
  H      -0.502338     -0.870032     -0.251274
5
Coordinates from ORCA-job CH4_HF E -38.689670027479
  C      -0.000019     -0.000000      0.129477
  H      -0.000016      0.000000      0.629477
  H       1.003197      0.000000     -0.253659
  H      -0.501631      0.868813     -0.253647
  H      -0.501631     -0.868813     -0.253647
5
Coordinates from ORCA-job CH4_HF E -38.689671023022
  C      -0.000019     -0.000000      0.130140
  H      -0.000016      0.000000      0.630140
  H       1.002548      0.000000     -0.254101
  H      -0.501307      0.868252     -0.254090
  H      -0.501307     -0.868252     -0.254090
5
Coordinates from ORCA-job CH4_HF E -38.689671030995
  C      -0.000019     -0.000000      0.130157
  H      -0.000016     -0.000000      0.630157
  H       1.002486      0.000000     -0.254112
  H      -0.501276      0.868197     -0.254101
  H      -0.501276     -0.868197     -0.254101
5
Coordinates from ORCA-job CH4_HF E -39.181731407727
  C      -0.000019     -0.000000      0.110157
  H      -0.000015      0.000000      0.710157
  H       1.002486      0.000000     -0.274112
  H      -0.501276      0.868197     -0.274101
  H      -0.501276     -0.868197     -0.274101
5
Coordinates from ORCA-job CH4_HF E -39.181739857748
  C      -0.000019      0.000000      0.109990
  H      -0.000015     -0.000000      0.709990
  H       1.004895     -0.000000     -0.274001
  H      -0.502480      0.870284     -0.273990
  H      -0.502480     -0.870284     -0.273990
5
Coordinates from ORCA-job CH4_HF E -39.181740824829
  C      -0.000019      0.000000      0.109631
  H      -0.000015     -0.000000      0.709631
  H       1.004661     -0.000000     -0.273761
  H      -0.502363      0.870081     -0.273750
  H      -0.502363     -0.870081     -0.273750
5
Coordinates from ORCA-job CH4_HF E -39.457919554797
  C      -0.000019      0.000000      0.089631
  H      -0.000014     -0.000000      0.789631
  H       1.004661     -0.000000     -0.293761
  H      -0.502363      0.870081     -0.293750
  H      -0.502363     -0.870081     -0.293750
5
Coordinates from ORCA-job CH4_HF E -39.457932722786
  C      -0.000019     -0.000000      0.089081
  H      -0.000014     -0.000000      0.789081
  H       1.007610      0.000000     -0.293395
  H      -0.503838      0.872635     -0.293384
  H      -0.503838     -0.872635     -0.293384
5
Coordinates from ORCA-job CH4_HF E -39.457934394308
  C      -0.000019      0.000000      0.088509
  H      -0.000014     -0.000000      0.788509
  H       1.007480      0.000000     -0.293013
  H      -0.503773      0.872523     -0.293002
  H      -0.503773     -0.872523     -0.293002
5
Coordinates from ORCA-job CH4_HF E -39.457934625885
  C      -0.000019     -0.000000      0.088139
  H      -0.000014     -0.000000      0.788139
  H       1.007593      0.000000     -0.292767
  H      -0.503830      0.872620     -0.292756
  H      -0.503830     -0.872620     -0.292756
5
Coordinates from ORCA-job CH4_HF E -39.609182711973
  C      -0.000020     -0.000000      0.068139
  H      -0.000014     -0.000000      0.868139
  H       1.007593      0.000000     -0.312767
  H      -0.503830      0.872620     -0.312756
  H      -0.503830     -0.872620     -0.312756
5
Coordinates from ORCA-job CH4_HF E -39.609198684447
  C      -0.000020      0.000000      0.067317
  H      -0.000014      0.000000      0.867317
  H       1.010799      0.000000     -0.312219
  H      -0.505433      0.875396     -0.312208
  H      -0.505433     -0.875396     -0.312208
5
Coordinates from ORCA-job CH4_HF E -39.609200735983
  C      -0.000020      0.000000      0.066622
  H      -0.000014     -0.000000      0.866622
  H       1.010722     -0.000000     -0.311756
  H      -0.505394      0.875330     -0.311745
  H      -0.505394     -0.875330     -0.311745
5
Coordinates from ORCA-job CH4_HF E -39.609200955582
  C      -0.000020      0.000000      0.066258
  H      -0.000014     -0.000000      0.866258
  H       1.010816     -0.000000     -0.311513
  H      -0.505442      0.875412     -0.311502
  H      -0.505442     -0.875412     -0.311502
5
Coordinates from ORCA-job CH4_HF E -39.686619557443
  C      -0.000020      0.000000      0.046258
  H      -0.000013     -0.000000      0.946258
  H       1.010816     -0.000000     -0.331513
  H      -0.505442      0.875412     -0.331502
  H      -0.505442     -0.875412     -0.331502
5
Coordinates from ORCA-job CH4_HF E -39.686639490710
  C      -0.000020     -0.000000      0.044828
  H      -0.000013     -0.000000      0.944828
  H       1.014101      0.000000     -0.330559
  H      -0.507084      0.878257     -0.330548
  H      -0.507084     -0.878257     -0.330548
5
Coordinates from ORCA-job CH4_HF E -39.686642393673
  C      -0.000020     -0.000000      0.043773
  H      -0.000013      0.000000      0.943773
  H       1.014282      0.000000     -0.329856
  H      -0.507175      0.878414     -0.329845
  H      -0.507175     -0.878414     -0.329845
5
Coordinates from ORCA-job CH4_HF E -39.686642525616
  C      -0.000020     -0.000000      0.043504
  H      -0.000013     -0.000000      0.943504
  H       1.014308      0.000000     -0.329677
  H      -0.507187      0.878436     -0.329666
  H      -0.507187     -0.878436     -0.329666
5
Coordinates from ORCA-job CH4_HF E -39.719943236142
  C      -0.000020     -0.000000      0.023504
  H      -0.000013     -0.000000      1.023504
  H       1.014308      0.000000     -0.349677
  H      -0.507188      0.878436     -0.349666
  H      -0.507188     -0.878436     -0.349666
5
Coordinates from ORCA-job CH4_HF E -39.719968610795
  C      -0.000020     -0.000000      0.021414
  H      -0.000013      0.000000      1.021414
  H       1.017572      0.000000     -0.348283
  H      -0.508820      0.881263     -0.348272
  H      -0.508820     -0.881263     -0.348272
5
Coordinates from ORCA-job CH4_HF E -39.719972508196
  C      -0.000020     -0.000000      0.019913
  H      -0.000013      0.000000      1.019913
  H       1.017983      0.000000     -0.347283
  H      -0.509025      0.881619     -0.347272
  H      -0.509025     -0.881619     -0.347272
5
Coordinates from ORCA-job CH4_HF E -39.719972522702
  C      -0.000020     -0.000000      0.019837
  H      -0.000013      0.000000      1.019837
  H       1.017967     -0.000000     -0.347232
  H      -0.509017      0.881605     -0.347221
  H      -0.509017     -0.881605     -0.347221
5
Coordinates from ORCA-job CH4_HF E -39.726583865505
  C      -0.000020     -0.000000     -0.000163
  H      -0.000012      0.000000      1.099837
  H       1.017967     -0.000000     -0.367232
  H      -0.509017      0.881605     -0.367221
  H      -0.509017     -0.881605     -0.367221
5
Coordinates from ORCA-job CH4_HF E -39.726614720535
  C      -0.000020     -0.000000     -0.002826
  H      -0.000012      0.000000      1.097174
  H       1.021142      0.000000     -0.365457
  H      -0.510605      0.884354     -0.365446
  H      -0.510605     -0.884354     -0.365446
5
Coordinates from ORCA-job CH4_HF E -39.726619337957
  C      -0.000020     -0.000000     -0.004661
  H      -0.000012      0.000000      1.095339
  H       1.021666     -0.000000     -0.364233
  H      -0.510867      0.884809     -0.364222
  H      -0.510867     -0.884809     -0.364222
5
Coordinates from ORCA-job CH4_HF E -39.726619348316
  C      -0.000020     -0.000000     -0.004595
  H      -0.000012      0.000000      1.095405
  H       1.021679     -0.000000     -0.364278
  H      -0.510873      0.884820     -0.364267
  H      -0.510873     -0.884820     -0.364267
5
Coordinates from ORCA-job CH4_HF E -39.716886227908
  C      -0.000020     -0.000000     -0.024595
  H      -0.000012      0.000000      1.175405
  H       1.021679     -0.000000     -0.384278
  H      -0.510874      0.884820     -0.384267
  H      -0.510874     -0.884820     -0.384267
5
Coordinates from ORCA-job CH4_HF E -39.716920789037
  C      -0.000020     -0.000000     -0.027670
  H      -0.000012      0.000000      1.172330
  H       1.024714     -0.000000     -0.382228
  H      -0.512391      0.887448     -0.382217
  H      -0.512391     -0.887448     -0.382217
5
Coordinates from ORCA-job CH4_HF E -39.716925731818
  C      -0.000020     -0.000000     -0.029670
  H      -0.000012      0.000000      1.170330
  H       1.025276      0.000000     -0.380894
  H      -0.512672      0.887935     -0.380883
  H      -0.512672     -0.887935     -0.380883
5
Coordinates from ORCA-job CH4_HF E -39.716925777561
  C      -0.000020     -0.000000     -0.029554
  H      -0.000012     -0.000000      1.170446
  H       1.025338     -0.000000     -0.380971
  H      -0.512703      0.887989     -0.380960
  H      -0.512703     -0.887989     -0.380960
5
Coordinates from ORCA-job CH4_HF E -39.697179111588
  C      -0.000020     -0.000000     -0.049554
  H      -0.000011     -0.000000      1.250446
  H       1.025338     -0.000000     -0.400971
  H      -0.512703      0.887989     -0.400960
  H      -0.512703     -0.887989     -0.400960
5
Coordinates from ORCA-job CH4_HF E -39.697215262448
  C      -0.000020     -0.000000     -0.052896
  H      -0.000011      0.000000      1.247104
  H       1.028209      0.000000     -0.398743
  H      -0.514139      0.890475     -0.398732
  H      -0.514139     -0.890475     -0.398732
5
Coordinates from ORCA-job CH4_HF E -39.697220243807
  C      -0.000020     -0.000000     -0.054957
  H      -0.000011     -0.000000      1.245043
  H       1.028778      0.000000     -0.397369
  H      -0.514423      0.890968     -0.397358
  H      -0.514423     -0.890968     -0.397358
5
Coordinates from ORCA-job CH4_HF E -39.697220306001
  C      -0.000020     -0.000000     -0.054838
  H      -0.000011     -0.000000      1.245162
  H       1.028875      0.000000     -0.397449
  H      -0.514472      0.891052     -0.397438
  H      -0.514472     -0.891052     -0.397438
5
Coordinates from ORCA-job CH4_HF E -39.671491696576
  C      -0.000021     -0.000000     -0.074838
  H      -0.000010     -0.000000      1.325162
  H       1.028875      0.000000     -0.417449
  H      -0.514472      0.891052     -0.417438
  H      -0.514472     -0.891052     -0.417438
5
Coordinates from ORCA-job CH4_HF E -39.671528041471
  C      -0.000021      0.000000     -0.078350
  H      -0.000010      0.000000      1.321650
  H       1.031588     -0.000000     -0.415107
  H      -0.515829      0.893401     -0.415096
  H      -0.515829     -0.893401     -0.415096
5
Coordinates from ORCA-job CH4_HF E -39.671532930405
  C      -0.000021     -0.000000     -0.080431
  H      -0.000010      0.000000      1.319569
  H       1.032154     -0.000000     -0.413720
  H      -0.516111      0.893891     -0.413709
  H      -0.516111     -0.893891     -0.413709
5
Coordinates from ORCA-job CH4_HF E -39.671532993499
  C      -0.000021     -0.000000     -0.080323
  H      -0.000010      0.000000      1.319677
  H       1.032268      0.000000     -0.413792
  H      -0.516169      0.893990     -0.413781
  H      -0.516169     -0.893990     -0.413781
5
Coordinates from ORCA-job CH4_HF E -39.642467049810
  C      -0.000021     -0.000000     -0.100323
  H      -0.000010      0.000000      1.399677
  H       1.032268      0.000000     -0.433792
  H      -0.516169      0.893990     -0.433781
  H      -0.516169     -0.893990     -0.433781
5
Coordinates from ORCA-job CH4_HF E -39.642502881089
  C      -0.000021      0.000000     -0.103950
  H      -0.000010     -0.000000      1.396050
  H       1.034845     -0.000000     -0.431374
  H      -0.517457      0.896222     -0.431363
  H      -0.517457     -0.896222     -0.431363
5
Coordinates from ORCA-job CH4_HF E -39.642507648493
  C      -0.000021     -0.000000     -0.106045
  H      -0.000010     -0.000000      1.393955
  H       1.035401     -0.000000     -0.429978
  H      -0.517735      0.896704     -0.429966
  H      -0.517735     -0.896704     -0.429966
5
Coordinates from ORCA-job CH4_HF E -39.642507707198
  C      -0.000021      0.000000     -0.105947
  H      -0.000010      0.000000      1.394053
  H       1.035523      0.000000     -0.430043
  H      -0.517796      0.896809     -0.430031
  H      -0.517796     -0.896809     -0.430031
5
Coordinates from ORCA-job CH4_HF E -39.611866612470
  C      -0.000021      0.000000     -0.125947
  H      -0.000009      0.000000      1.474053
  H       1.035523      0.000000     -0.450043
  H      -0.517796      0.896809     -0.450031
  H      -0.517796     -0.896809     -0.450031
5
Coordinates from ORCA-job CH4_HF E -39.611901536921
  C      -0.000021     -0.000000     -0.129654
  H      -0.000009      0.000000      1.470346
  H       1.037984      0.000000     -0.447571
  H      -0.519027      0.898941     -0.447560
  H      -0.519027     -0.898941     -0.447560
5
Coordinates from ORCA-job CH4_HF E -39.611906192078
  C      -0.000021     -0.000000     -0.131769
  H      -0.000009      0.000000      1.468231
  H       1.038528      0.000000     -0.446161
  H      -0.519299      0.899412     -0.446150
  H      -0.519299     -0.899412     -0.446150
5
Coordinates from ORCA-job CH4_HF E -39.611906246023
  C      -0.000021     -0.000000     -0.131680
  H      -0.000009      0.000000      1.468320
  H       1.038652      0.000000     -0.446221
  H      -0.519361      0.899519     -0.446209
  H      -0.519361     -0.899519     -0.446209
5
Coordinates from ORCA-job CH4_HF E -39.580880728464
  C      -0.000021     -0.000000     -0.151680
  H      -0.000009      0.000000      1.548320
  H       1.038652      0.000000     -0.466221
  H      -0.519361      0.899519     -0.466209
  H      -0.519361     -0.899519     -0.466209
5
Coordinates from ORCA-job CH4_HF E -39.580914449935
  C      -0.000021     -0.000000     -0.155439
  H      -0.000009      0.000000      1.544561
  H       1.041010      0.000000     -0.463715
  H      -0.520540      0.901561     -0.463704
  H      -0.520540     -0.901561     -0.463704
5
Coordinates from ORCA-job CH4_HF E -39.580919012675
  C      -0.000021     -0.000000     -0.157585
  H      -0.000009      0.000000      1.542415
  H       1.041538      0.000000     -0.462284
  H      -0.520804      0.902018     -0.462273
  H      -0.520804     -0.902018     -0.462273
5
Coordinates from ORCA-job CH4_HF E -39.580919063636
  C      -0.000021     -0.000000     -0.157502
  H      -0.000009      0.000000      1.542498
  H       1.041663      0.000000     -0.462340
  H      -0.520867      0.902127     -0.462329
  H      -0.520867     -0.902127     -0.462329
5
Coordinates from ORCA-job CH4_HF E -39.550331887527
  C      -0.000021     -0.000000     -0.177502
  H      -0.000008      0.000000      1.622498
  H       1.041663      0.000000     -0.482340
  H      -0.520867      0.902127     -0.482329
  H      -0.520867     -0.902127     -0.482329
5
Coordinates from ORCA-job CH4_HF E -39.550364176717
  C      -0.000021     -0.000000     -0.181291
  H      -0.000008      0.000000      1.618709
  H       1.043919      0.000000     -0.479814
  H      -0.521995      0.904080     -0.479802
  H      -0.521995     -0.904080     -0.479802
5
Coordinates from ORCA-job CH4_HF E -39.550368661410
  C      -0.000021     -0.000000     -0.183475
  H      -0.000008      0.000000      1.616525
  H       1.044434      0.000000     -0.478357
  H      -0.522252      0.904526     -0.478346
  H      -0.522252     -0.904526     -0.478346
5
Coordinates from ORCA-job CH4_HF E -39.550368709271
  C      -0.000021     -0.000000     -0.183396
  H      -0.000008      0.000000      1.616604
  H       1.044559      0.000000     -0.478410
  H      -0.522315      0.904635     -0.478399
  H      -0.522315     -0.904635     -0.478399
5
Coordinates from ORCA-job CH4_HF E -39.520802152825
  C      -0.000021     -0.000000     -0.203396
  H      -0.000008      0.000000      1.696604
  H       1.044559      0.000000     -0.498410
  H      -0.522315      0.904635     -0.498399
  H      -0.522315     -0.904635     -0.498399
5
Coordinates from ORCA-job CH4_HF E -39.520832849452
  C      -0.000021     -0.000000     -0.207198
  H      -0.000008      0.000000      1.692802
  H       1.046709      0.000000     -0.495876
  H      -0.523390      0.906497     -0.495864
  H      -0.523390     -0.906497     -0.495864
5
Coordinates from ORCA-job CH4_HF E -39.520837273958
  C      -0.000022     -0.000000     -0.209429
  H      -0.000008      0.000000      1.690571
  H       1.047214      0.000000     -0.494388
  H      -0.523642      0.906934     -0.494377
  H      -0.523642     -0.906934     -0.494377
5
Coordinates from ORCA-job CH4_HF E -39.520837318587
  C      -0.000022     -0.000000     -0.209354
  H      -0.000008      0.000000      1.690646
  H       1.047338     -0.000000     -0.494438
  H      -0.523704      0.907042     -0.494427
  H      -0.523704     -0.907042     -0.494427
5
Coordinates from ORCA-job CH4_HF E -39.491165400177
  C      -0.000022     -0.000000     -0.249617
  H      -0.000007      0.000000      1.750383
  H       1.031140     -0.000000     -0.500930
  H      -0.515606      0.893014     -0.500918
  H      -0.515606     -0.893014     -0.500918
5
Coordinates from ORCA-job CH4_HF E -39.492607792001
  C      -0.000022     -0.000000     -0.244104
  H      -0.000007      0.000000      1.755896
  H       1.057929      0.000000     -0.504605
  H      -0.529000      0.916214     -0.504593
  H      -0.529000     -0.916214     -0.504593
5
Coordinates from ORCA-job CH4_HF E -39.492687635020
  C      -0.000022     -0.000000     -0.242842
  H      -0.000007      0.000000      1.757158
  H       1.053194      0.000000     -0.505446
  H      -0.526632      0.912113     -0.505435
  H      -0.526632     -0.912113     -0.505435
5
Coordinates from ORCA-job CH4_HF E -39.492714684342
  C      -0.000022     -0.000000     -0.240461
  H      -0.000007      0.000000      1.759539
  H       1.051101      0.000000     -0.507034
  H      -0.525586      0.910300     -0.507022
  H      -0.525586     -0.910300     -0.507022
5
Coordinates from ORCA-job CH4_HF E -39.492735297086
  C      -0.000022     -0.000000     -0.236582
  H      -0.000007      0.000000      1.763418
  H       1.049528     -0.000000     -0.509619
  H      -0.524799      0.908938     -0.509608
  H      -0.524799     -0.908938     -0.509608
5
Coordinates from ORCA-job CH4_HF E -39.492738173825
  C      -0.000022     -0.000000     -0.235415
  H      -0.000007      0.000000      1.764585
  H       1.049705     -0.000000     -0.510398
  H      -0.524888      0.909092     -0.510387
  H      -0.524888     -0.909092     -0.510387
5
Coordinates from ORCA-job CH4_HF E -39.492738371638
  C      -0.000022     -0.000000     -0.235331
  H      -0.000007      0.000000      1.764669
  H       1.049944     -0.000000     -0.510453
  H      -0.525008      0.909299     -0.510442
  H      -0.525008     -0.909299     -0.510442
5
Coordinates from ORCA-job CH4_HF E -39.464805960863
  C      -0.000022     -0.000000     -0.275561
  H      -0.000007      0.000000      1.824439
  H       1.033578     -0.000000     -0.516967
  H      -0.516824      0.895125     -0.516955
  H      -0.516824     -0.895125     -0.516955
5
Coordinates from ORCA-job CH4_HF E -39.466224923806
  C      -0.000022     -0.000000     -0.270404
  H      -0.000007     -0.000000      1.829596
  H       1.060392      0.000000     -0.520405
  H      -0.530232      0.918347     -0.520394
  H      -0.530232     -0.918347     -0.520394
5
Coordinates from ORCA-job CH4_HF E -39.466302805690
  C      -0.000022     -0.000000     -0.269194
  H      -0.000007      0.000000      1.830806
  H       1.055675      0.000000     -0.521212
  H      -0.527873      0.914262     -0.521200
  H      -0.527873     -0.914262     -0.521200
5
Coordinates from ORCA-job CH4_HF E -39.466327904098
  C      -0.000022     -0.000000     -0.266936
  H      -0.000007      0.000000      1.833064
  H       1.053725      0.000000     -0.522717
  H      -0.526898      0.912574     -0.522705
  H      -0.526898     -0.912574     -0.522705
5
Coordinates from ORCA-job CH4_HF E -39.466349914117
  C      -0.000022      0.000000     -0.262821
  H      -0.000007      0.000000      1.837179
  H       1.052052     -0.000000     -0.525460
  H      -0.526061      0.911124     -0.525449
  H      -0.526061     -0.911124     -0.525449
5
Coordinates from ORCA-job CH4_HF E -39.466353224326
  C      -0.000022     -0.000000     -0.261512
  H      -0.000007      0.000000      1.838488
  H       1.052209     -0.000000     -0.526333
  H      -0.526140      0.911261     -0.526322
  H      -0.526140     -0.911261     -0.526322
5
Coordinates from ORCA-job CH4_HF E -39.466353485040
  C      -0.000022     -0.000000     -0.261406
  H      -0.000007      0.000000      1.838594
  H       1.052474     -0.000000     -0.526404
  H      -0.526272      0.911489     -0.526392
  H      -0.526272     -0.911489     -0.526392
5
Coordinates from ORCA-job CH4_HF E -39.440338739855
  C      -0.000022     -0.000000     -0.301597
  H      -0.000006      0.000000      1.898403
  H       1.035980     -0.000000     -0.532943
  H      -0.518026      0.897205     -0.532932
  H      -0.518026     -0.897205     -0.532932
5
Coordinates from ORCA-job CH4_HF E -39.441726629862
  C      -0.000022      0.000000     -0.296785
  H      -0.000006     -0.000000      1.903215
  H       1.062722     -0.000000     -0.536151
  H      -0.531397      0.920365     -0.536139
  H      -0.531397     -0.920365     -0.536139
5
Coordinates from ORCA-job CH4_HF E -39.441802434439
  C      -0.000022      0.000000     -0.295626
  H      -0.000006     -0.000000      1.904374
  H       1.058034     -0.000000     -0.536924
  H      -0.529053      0.916305     -0.536912
  H      -0.529053     -0.916305     -0.536912
5
Coordinates from ORCA-job CH4_HF E -39.441825704799
  C      -0.000022      0.000000     -0.293484
  H      -0.000006     -0.000000      1.906516
  H       1.056219     -0.000000     -0.538352
  H      -0.528145      0.914733     -0.538340
  H      -0.528145     -0.914733     -0.538340
5
Coordinates from ORCA-job CH4_HF E -39.441849056830
  C      -0.000022      0.000000     -0.289127
  H      -0.000006     -0.000000      1.910873
  H       1.054450      0.000000     -0.541256
  H      -0.527261      0.913201     -0.541245
  H      -0.527261     -0.913201     -0.541245
5
Coordinates from ORCA-job CH4_HF E -39.441852844483
  C      -0.000022      0.000000     -0.287663
  H      -0.000006     -0.000000      1.912337
  H       1.054584      0.000000     -0.542232
  H      -0.527328      0.913318     -0.542221
  H      -0.527328     -0.913318     -0.542221
5
Coordinates from ORCA-job CH4_HF E -39.441853179886
  C      -0.000022      0.000000     -0.287520
  H      -0.000006     -0.000000      1.912480
  H       1.054876     -0.000000     -0.542328
  H      -0.527474      0.913570     -0.542316
  H      -0.527474     -0.913570     -0.542316
5
Coordinates from ORCA-job CH4_HF E -39.417836862777
  C      -0.000022      0.000000     -0.327667
  H      -0.000006     -0.000000      1.972333
  H       1.038293     -0.000000     -0.548896
  H      -0.519182      0.899209     -0.548885
  H      -0.519182     -0.899209     -0.548885
5
Coordinates from ORCA-job CH4_HF E -39.419189913420
  C      -0.000022     -0.000000     -0.323195
  H      -0.000006     -0.000000      1.976805
  H       1.064906      0.000000     -0.551877
  H      -0.532489      0.922256     -0.551866
  H      -0.532489     -0.922256     -0.551866
5
Coordinates from ORCA-job CH4_HF E -39.419263488633
  C      -0.000022     -0.000000     -0.322090
  H      -0.000006     -0.000000      1.977910
  H       1.060251      0.000000     -0.552614
  H      -0.530161      0.918225     -0.552603
  H      -0.530161     -0.918225     -0.552603
5
Coordinates from ORCA-job CH4_HF E -39.419284828203
  C      -0.000022     -0.000000     -0.320071
  H      -0.000006      0.000000      1.979929
  H       1.058573      0.000000     -0.553960
  H      -0.529323      0.916772     -0.553949
  H      -0.529323     -0.916772     -0.553949
5
Coordinates from ORCA-job CH4_HF E -39.419309305648
  C      -0.000022      0.000000     -0.315486
  H      -0.000006      0.000000      1.984514
  H       1.056720     -0.000000     -0.557017
  H      -0.528396      0.915167     -0.557005
  H      -0.528396     -0.915167     -0.557005
5
Coordinates from ORCA-job CH4_HF E -39.419313583007
  C      -0.000022     -0.000000     -0.313855
  H      -0.000006      0.000000      1.986145
  H       1.056826     -0.000000     -0.558104
  H      -0.528449      0.915259     -0.558093
  H      -0.528449     -0.915259     -0.558093
5
Coordinates from ORCA-job CH4_HF E -39.419314017354
  C      -0.000022     -0.000000     -0.313668
  H      -0.000006      0.000000      1.986332
  H       1.057145     -0.000000     -0.558229
  H      -0.528609      0.915535     -0.558218
  H      -0.528609     -0.915535     -0.558218
5
Coordinates from ORCA-job CH4_HF E -39.397300129132
  C      -0.000023     -0.000000     -0.353767
  H      -0.000005      0.000000      2.046233
  H       1.040508     -0.000000     -0.564830
  H      -0.520290      0.901127     -0.564819
  H      -0.520290     -0.901127     -0.564819
5
Coordinates from ORCA-job CH4_HF E -39.398615911526
  C      -0.000023     -0.000000     -0.349622
  H      -0.000005      0.000000      2.050378
  H       1.066942      0.000000     -0.567593
  H      -0.533507      0.924020     -0.567581
  H      -0.533507     -0.924020     -0.567581
5
Coordinates from ORCA-job CH4_HF E -39.398687222906
  C      -0.000023     -0.000000     -0.348573
  H      -0.000005      0.000000      2.051427
  H       1.062325      0.000000     -0.568293
  H      -0.531199      0.920021     -0.568281
  H      -0.531199     -0.920021     -0.568281
5
Coordinates from ORCA-job CH4_HF E -39.398706640629
  C      -0.000022     -0.000000     -0.346676
  H      -0.000005      0.000000      2.053324
  H       1.060783      0.000000     -0.569557
  H      -0.530427      0.918686     -0.569545
  H      -0.530427     -0.918686     -0.569545
5
Coordinates from ORCA-job CH4_HF E -39.398732022427
  C      -0.000022     -0.000000     -0.341880
  H      -0.000005      0.000000      2.058120
  H       1.058857     -0.000000     -0.572754
  H      -0.529465      0.917018     -0.572743
  H      -0.529465     -0.917018     -0.572743
5
Coordinates from ORCA-job CH4_HF E -39.398736819505
  C      -0.000022     -0.000000     -0.340062
  H      -0.000005      0.000000      2.059937
  H       1.058930     -0.000000     -0.573966
  H      -0.529501      0.917081     -0.573955
  H      -0.529501     -0.917081     -0.573955
5
Coordinates from ORCA-job CH4_HF E -39.398737362393
  C      -0.000022     -0.000000     -0.339828
  H      -0.000005      0.000000      2.060172
  H       1.059274     -0.000000     -0.574122
  H      -0.529673      0.917379     -0.574111
  H      -0.529673     -0.917379     -0.574111
5
Coordinates from ORCA-job CH4_HF E -39.378674006595
  C      -0.000023     -0.000000     -0.379874
  H      -0.000005      0.000000      2.120126
  H       1.042615     -0.000000     -0.580758
  H      -0.521344      0.902952     -0.580747
  H      -0.521344     -0.902952     -0.580747
5
Coordinates from ORCA-job CH4_HF E -39.379950890516
  C      -0.000023     -0.000000     -0.376042
  H      -0.000005      0.000000      2.123958
  H       1.068831      0.000000     -0.583313
  H      -0.534452      0.925656     -0.583301
  H      -0.534452     -0.925656     -0.583301
5
Coordinates from ORCA-job CH4_HF E -39.380019966738
  C      -0.000023     -0.000000     -0.375047
  H      -0.000005      0.000000      2.124953
  H       1.064254      0.000000     -0.583976
  H      -0.532163      0.921692     -0.583965
  H      -0.532163     -0.921692     -0.583965
5
Coordinates from ORCA-job CH4_HF E -39.380037537470
  C      -0.000023     -0.000000     -0.373271
  H      -0.000005      0.000000      2.126729
  H       1.062840      0.000000     -0.585160
  H      -0.531456      0.920468     -0.585149
  H      -0.531456     -0.920468     -0.585149
5
Coordinates from ORCA-job CH4_HF E -39.380063601004
  C      -0.000023     -0.000000     -0.368279
  H      -0.000005      0.000000      2.131721
  H       1.060856     -0.000000     -0.588489
  H      -0.530464      0.918749     -0.588477
  H      -0.530464     -0.918749     -0.588477
5
Coordinates from ORCA-job CH4_HF E -39.380068946532
  C      -0.000023     -0.000000     -0.366253
  H      -0.000005      0.000000      2.133747
  H       1.060890     -0.000000     -0.589839
  H      -0.530481      0.918779     -0.589828
  H      -0.530481     -0.918779     -0.589828
5
Coordinates from ORCA-job CH4_HF E -39.380069606320
  C      -0.000023     -0.000000     -0.365972
  H      -0.000005      0.000000      2.134028
  H       1.061258     -0.000000     -0.590026
  H      -0.530665      0.919097     -0.590015
  H      -0.530665     -0.919097     -0.590015
