2
Coordinates from ORCA-job Hidrogen E  -1.160051848788
  H      -7.596400      2.619810      0.000000
  H      -8.078380      2.477570      0.396303
2
Coordinates from ORCA-job Hidrogen E  -1.167723937687
  H      -7.544136      2.635234     -0.042973
  H      -8.130644      2.462146      0.439276
2
Coordinates from ORCA-job Hidrogen E  -1.168562830221
  H      -7.554294      2.632236     -0.034621
  H      -8.120486      2.465144      0.430924
2
Coordinates from ORCA-job Hidrogen E  -1.168647382864
  H      -7.559110      2.630815     -0.030661
  H      -8.115670      2.466565      0.426964
2
Coordinates from ORCA-job Hidrogen E  -1.168648747367
  H      -7.558557      2.630978     -0.031116
  H      -8.116223      2.466402      0.427419
2
Coordinates from ORCA-job Hidrogen E  -1.168648749386
  H      -7.558576      2.630972     -0.031100
  H      -8.116204      2.466408      0.427403
