3
Coordinates from ORCA-job H2O_DFT E -66.064751362945
  O      -0.026983      0.000000      0.331733
  H       0.105622      0.000000      0.481452
  H       0.851360      0.000000     -0.088185
3
Coordinates from ORCA-job H2O_DFT E -66.091040685608
  O      -0.028451      0.000000      0.333750
  H       0.066562      0.000000      0.509739
  H       0.891889      0.000000     -0.118489
3
Coordinates from ORCA-job H2O_DFT E -66.109881789593
  O      -0.000907      0.000000      0.326578
  H       0.040935      0.000000      0.522152
  H       0.889972      0.000000     -0.123729
3
Coordinates from ORCA-job H2O_DFT E -66.117898018881
  O       0.030546      0.000000      0.324153
  H       0.020081      0.000000      0.523879
  H       0.879373      0.000000     -0.123031
3
Coordinates from ORCA-job H2O_DFT E -66.119485159915
  O       0.043627      0.000000      0.327864
  H       0.005696      0.000000      0.524234
  H       0.880677      0.000000     -0.127099
3
Coordinates from ORCA-job H2O_DFT E -66.119836047176
  O       0.050580      0.000000      0.331715
  H      -0.003971      0.000000      0.524131
  H       0.883391      0.000000     -0.130846
3
Coordinates from ORCA-job H2O_DFT E -66.119856870167
  O       0.052591      0.000000      0.332798
  H      -0.006440      0.000000      0.523888
  H       0.883848      0.000000     -0.131686
3
Coordinates from ORCA-job H2O_DFT E -66.119858281299
  O       0.053262      0.000000      0.333119
  H      -0.007165      0.000000      0.523772
  H       0.883902      0.000000     -0.131891
3
Coordinates from ORCA-job H2O_DFT E -66.119858303696
  O       0.053340      0.000000      0.333154
  H      -0.007243      0.000000      0.523757
  H       0.883903      0.000000     -0.131911
3
Coordinates from ORCA-job H2O_DFT E -73.298753887530
  O       0.068035      0.000000      0.254300
  H      -0.064496      0.000000      0.631706
  H       0.926461      0.000000     -0.161005
3
Coordinates from ORCA-job H2O_DFT E -73.299337820175
  O       0.067212      0.000000      0.248914
  H      -0.055594      0.000000      0.629595
  H       0.918382      0.000000     -0.153509
3
Coordinates from ORCA-job H2O_DFT E -73.300309381716
  O       0.056879      0.000000      0.240313
  H      -0.039583      0.000000      0.628508
  H       0.912704      0.000000     -0.143821
3
Coordinates from ORCA-job H2O_DFT E -73.301084413706
  O       0.025132      0.000000      0.224941
  H      -0.001285      0.000000      0.624068
  H       0.906154      0.000000     -0.124009
3
Coordinates from ORCA-job H2O_DFT E -73.301452639473
  O       0.034144      0.000000      0.231288
  H      -0.017639      0.000000      0.627922
  H       0.913495      0.000000     -0.134210
3
Coordinates from ORCA-job H2O_DFT E -73.301492684449
  O       0.031100      0.000000      0.230946
  H      -0.016069      0.000000      0.628155
  H       0.914969      0.000000     -0.134101
3
Coordinates from ORCA-job H2O_DFT E -73.301496113372
  O       0.029918      0.000000      0.230827
  H      -0.015474      0.000000      0.628243
  H       0.915555      0.000000     -0.134071
3
Coordinates from ORCA-job H2O_DFT E -73.301496117696
  O       0.029927      0.000000      0.230840
  H      -0.015503      0.000000      0.628252
  H       0.915576      0.000000     -0.134092
3
Coordinates from ORCA-job H2O_DFT E -74.832221052519
  O       0.038193      0.000000      0.146257
  H      -0.056195      0.000000      0.738786
  H       0.948002      0.000000     -0.160042
3
Coordinates from ORCA-job H2O_DFT E -74.834049430368
  O       0.021257      0.000000      0.141309
  H      -0.044230      0.000000      0.737725
  H       0.952973      0.000000     -0.154034
3
Coordinates from ORCA-job H2O_DFT E -74.835122238419
  O      -0.003957      0.000000      0.128707
  H      -0.012559      0.000000      0.728645
  H       0.946515      0.000000     -0.132351
3
Coordinates from ORCA-job H2O_DFT E -74.835172535352
  O       0.000660      0.000000      0.130984
  H      -0.018730      0.000000      0.730671
  H       0.948069      0.000000     -0.136655
3
Coordinates from ORCA-job H2O_DFT E -74.835173206407
  O       0.000183      0.000000      0.130749
  H      -0.018102      0.000000      0.730470
  H       0.947919      0.000000     -0.136219
3
Coordinates from ORCA-job H2O_DFT E -74.835173206514
  O       0.000173      0.000000      0.130744
  H      -0.018088      0.000000      0.730466
  H       0.947915      0.000000     -0.136210
3
Coordinates from ORCA-job H2O_DFT E -75.088249862193
  O       0.004633      0.000000      0.087878
  H      -0.035306      0.000000      0.786737
  H       0.960674      0.000000     -0.149615
3
Coordinates from ORCA-job H2O_DFT E -75.088625306936
  O      -0.004914      0.000000      0.085751
  H      -0.029216      0.000000      0.785329
  H       0.964130      0.000000     -0.146080
3
Coordinates from ORCA-job H2O_DFT E -75.088701269518
  O      -0.010246      0.000000      0.082685
  H      -0.021778      0.000000      0.782590
  H       0.962024      0.000000     -0.140276
3
Coordinates from ORCA-job H2O_DFT E -75.088701828066
  O      -0.009970      0.000000      0.082942
  H      -0.022374      0.000000      0.782832
  H       0.962344      0.000000     -0.140775
3
Coordinates from ORCA-job H2O_DFT E -75.088701828323
  O      -0.009977      0.000000      0.082938
  H      -0.022364      0.000000      0.782829
  H       0.962341      0.000000     -0.140767
3
Coordinates from ORCA-job H2O_DFT E -75.212148097263
  O      -0.004755      0.000000      0.040357
  H      -0.039337      0.000000      0.839609
  H       0.974093      0.000000     -0.154965
3
Coordinates from ORCA-job H2O_DFT E -75.212429235808
  O      -0.013963      0.000000      0.037813
  H      -0.032966      0.000000      0.837587
  H       0.976929      0.000000     -0.150400
3
Coordinates from ORCA-job H2O_DFT E -75.212455331375
  O      -0.016907      0.000000      0.035747
  H      -0.028369      0.000000      0.835665
  H       0.975276      0.000000     -0.146413
3
Coordinates from ORCA-job H2O_DFT E -75.212455704128
  O      -0.016793      0.000000      0.035965
  H      -0.028824      0.000000      0.835874
  H       0.975616      0.000000     -0.146839
3
Coordinates from ORCA-job H2O_DFT E -75.212455704400
  O      -0.016791      0.000000      0.035962
  H      -0.028819      0.000000      0.835872
  H       0.975610      0.000000     -0.146834
3
Coordinates from ORCA-job H2O_DFT E -75.246228598031
  O      -0.013743      0.000000      0.014876
  H      -0.037401      0.000000      0.864547
  H       0.981144      0.000000     -0.154423
3
Coordinates from ORCA-job H2O_DFT E -75.246284750456
  O      -0.018073      0.000000      0.013526
  H      -0.034189      0.000000      0.863373
  H       0.982262      0.000000     -0.151898
3
Coordinates from ORCA-job H2O_DFT E -75.246287941030
  O      -0.019049      0.000000      0.012754
  H      -0.032543      0.000000      0.862647
  H       0.981592      0.000000     -0.150401
3
Coordinates from ORCA-job H2O_DFT E -75.246287998411
  O      -0.019031      0.000000      0.012838
  H      -0.032709      0.000000      0.862728
  H       0.981740      0.000000     -0.150565
3
Coordinates from ORCA-job H2O_DFT E -75.267770530560
  O      -0.015768      0.000000     -0.008111
  H      -0.041375      0.000000      0.891524
  H       0.987143      0.000000     -0.158413
3
Coordinates from ORCA-job H2O_DFT E -75.267816517358
  O      -0.019840      0.000000     -0.009540
  H      -0.038202      0.000000      0.890273
  H       0.988042      0.000000     -0.155734
3
Coordinates from ORCA-job H2O_DFT E -75.267818232268
  O      -0.020514      0.000000     -0.010147
  H      -0.036962      0.000000      0.889702
  H       0.987476      0.000000     -0.154555
3
Coordinates from ORCA-job H2O_DFT E -75.267818268317
  O      -0.020507      0.000000     -0.010080
  H      -0.037091      0.000000      0.889767
  H       0.987599      0.000000     -0.154687
3
Coordinates from ORCA-job H2O_DFT E -75.278288811039
  O      -0.017726      0.000000     -0.026725
  H      -0.044109      0.000000      0.912904
  H       0.991836      0.000000     -0.161179
3
Coordinates from ORCA-job H2O_DFT E -75.278313436068
  O      -0.020790      0.000000     -0.027903
  H      -0.041618      0.000000      0.911866
  H       0.992407      0.000000     -0.158963
3
Coordinates from ORCA-job H2O_DFT E -75.278314076188
  O      -0.021174      0.000000     -0.028296
  H      -0.040844      0.000000      0.911498
  H       0.992018      0.000000     -0.158202
3
Coordinates from ORCA-job H2O_DFT E -75.278314091275
  O      -0.021174      0.000000     -0.028252
  H      -0.040926      0.000000      0.911540
  H       0.992100      0.000000     -0.158288
3
Coordinates from ORCA-job H2O_DFT E -75.281744771712
  O      -0.019717      0.000000     -0.036530
  H      -0.044474      0.000000      0.923151
  H       0.994191      0.000000     -0.161621
3
Coordinates from ORCA-job H2O_DFT E -75.281750311748
  O      -0.021190      0.000000     -0.037126
  H      -0.043239      0.000000      0.922620
  H       0.994429      0.000000     -0.160494
3
Coordinates from ORCA-job H2O_DFT E -75.281750428049
  O      -0.021346      0.000000     -0.037299
  H      -0.042905      0.000000      0.922459
  H       0.994251      0.000000     -0.160160
3
Coordinates from ORCA-job H2O_DFT E -75.284145121007
  O      -0.019857      0.000000     -0.045551
  H      -0.046473      0.000000      0.934088
  H       0.996330      0.000000     -0.163537
3
Coordinates from ORCA-job H2O_DFT E -75.284150180364
  O      -0.021293      0.000000     -0.046131
  H      -0.045294      0.000000      0.933575
  H       0.996586      0.000000     -0.162443
3
Coordinates from ORCA-job H2O_DFT E -75.284150273467
  O      -0.021418      0.000000     -0.046291
  H      -0.044991      0.000000      0.933426
  H       0.996409      0.000000     -0.162135
3
Coordinates from ORCA-job H2O_DFT E -75.285620388265
  O      -0.019897      0.000000     -0.054517
  H      -0.048579      0.000000      0.945071
  H       0.998476      0.000000     -0.165554
3
Coordinates from ORCA-job H2O_DFT E -75.285625021998
  O      -0.021283      0.000000     -0.055103
  H      -0.047417      0.000000      0.944556
  H       0.998701      0.000000     -0.164453
3
Coordinates from ORCA-job H2O_DFT E -75.285625095079
  O      -0.021388      0.000000     -0.055247
  H      -0.047147      0.000000      0.944421
  H       0.998535      0.000000     -0.164174
3
Coordinates from ORCA-job H2O_DFT E -75.285873932081
  O      -0.017513      0.000000     -0.075733
  H      -0.056162      0.000000      0.973555
  H       1.003674      0.000000     -0.172822
3
Coordinates from ORCA-job H2O_DFT E -75.285897851165
  O      -0.020716      0.000000     -0.077235
  H      -0.053353      0.000000      0.972258
  H       1.004069      0.000000     -0.170023
3
Coordinates from ORCA-job H2O_DFT E -75.285898131215
  O      -0.020881      0.000000     -0.077528
  H      -0.052824      0.000000      0.971986
  H       1.003705      0.000000     -0.169457
3
Coordinates from ORCA-job H2O_DFT E -75.285898140408
  O      -0.020884      0.000000     -0.077493
  H      -0.052887      0.000000      0.972019
  H       1.003771      0.000000     -0.169526
3
Coordinates from ORCA-job H2O_DFT E -75.282280859947
  O      -0.016823      0.000000     -0.097816
  H      -0.062034      0.000000      1.001255
  H       1.008857      0.000000     -0.178439
3
Coordinates from ORCA-job H2O_DFT E -75.282300128448
  O      -0.019737      0.000000     -0.099333
  H      -0.059335      0.000000      0.999954
  H       1.009072      0.000000     -0.175621
3
Coordinates from ORCA-job H2O_DFT E -75.282300300472
  O      -0.019830      0.000000     -0.099569
  H      -0.058924      0.000000      0.999736
  H       1.008754      0.000000     -0.175167
3
Coordinates from ORCA-job H2O_DFT E -75.282300306959
  O      -0.019833      0.000000     -0.099539
  H      -0.058975      0.000000      0.999764
  H       1.008808      0.000000     -0.175225
3
Coordinates from ORCA-job H2O_DFT E -75.267256610800
  O      -0.011369      0.000000     -0.139812
  H      -0.077516      0.000000      1.058363
  H       1.018886      0.000000     -0.193551
3
Coordinates from ORCA-job H2O_DFT E -75.267307780208
  O      -0.016230      0.000000     -0.142717
  H      -0.072803      0.000000      1.055949
  H       1.019034      0.000000     -0.188233
3
Coordinates from ORCA-job H2O_DFT E -75.267308247097
  O      -0.016268      0.000000     -0.143097
  H      -0.072180      0.000000      1.055600
  H       1.018448      0.000000     -0.187504
3
Coordinates from ORCA-job H2O_DFT E -75.267308262676
  O      -0.016270      0.000000     -0.143048
  H      -0.072260      0.000000      1.055646
  H       1.018530      0.000000     -0.187598
3
Coordinates from ORCA-job H2O_DFT E -75.222353181683
  O       0.001892      0.000000     -0.222155
  H      -0.110329      0.000000      1.173340
  H       1.038437      0.000000     -0.226186
3
Coordinates from ORCA-job H2O_DFT E -75.222442949409
  O      -0.004544      0.000000     -0.227035
  H      -0.103514      0.000000      1.169463
  H       1.038058      0.000000     -0.217428
3
Coordinates from ORCA-job H2O_DFT E -75.222444568949
  O      -0.004608      0.000000     -0.227844
  H      -0.102313      0.000000      1.168743
  H       1.036922      0.000000     -0.215899
3
Coordinates from ORCA-job H2O_DFT E -75.222444600692
  O      -0.004613      0.000000     -0.227764
  H      -0.102433      0.000000      1.168815
  H       1.037046      0.000000     -0.216051
3
Coordinates from ORCA-job H2O_DFT E -75.197386220189
  O       0.000730      0.000000     -0.279443
  H      -0.103128      0.000000      1.216957
  H       1.032398      0.000000     -0.212515
3
Coordinates from ORCA-job H2O_DFT E -75.197609451590
  O      -0.000722      0.000000     -0.272963
  H      -0.112563      0.000000      1.222862
  H       1.043285      0.000000     -0.224899
3
Coordinates from ORCA-job H2O_DFT E -75.197640686464
  O       0.001956      0.000000     -0.269202
  H      -0.117706      0.000000      1.226018
  H       1.045749      0.000000     -0.231816
3
Coordinates from ORCA-job H2O_DFT E -75.197641358517
  O       0.002524      0.000000     -0.268819
  H      -0.118202      0.000000      1.226314
  H       1.045678      0.000000     -0.232495
3
Coordinates from ORCA-job H2O_DFT E -75.197641359376
  O       0.002535      0.000000     -0.268822
  H      -0.118197      0.000000      1.226311
  H       1.045662      0.000000     -0.232489
3
Coordinates from ORCA-job H2O_DFT E -75.148207052828
  O       0.014317      0.000000     -0.372476
  H      -0.120277      0.000000      1.322188
  H       1.035960      0.000000     -0.224712
3
Coordinates from ORCA-job H2O_DFT E -75.148814552005
  O       0.012004      0.000000     -0.361060
  H      -0.135751      0.000000      1.332507
  H       1.053747      0.000000     -0.246447
3
Coordinates from ORCA-job H2O_DFT E -75.148972355718
  O       0.017231      0.000000     -0.350387
  H      -0.149151      0.000000      1.341451
  H       1.061920      0.000000     -0.266064
3
Coordinates from ORCA-job H2O_DFT E -75.148976507432
  O       0.018597      0.000000     -0.348927
  H      -0.150895      0.000000      1.342602
  H       1.062298      0.000000     -0.268675
3
Coordinates from ORCA-job H2O_DFT E -75.148976533642
  O       0.018670      0.000000     -0.348949
  H      -0.150859      0.000000      1.342577
  H       1.062189      0.000000     -0.268629
3
Coordinates from ORCA-job H2O_DFT E -75.126136584749
  O       0.025583      0.000000     -0.401036
  H      -0.152577      0.000000      1.390125
  H       1.056994      0.000000     -0.264089
3
Coordinates from ORCA-job H2O_DFT E -75.126274585930
  O       0.024261      0.000000     -0.395370
  H      -0.159917      0.000000      1.395182
  H       1.065656      0.000000     -0.274812
3
Coordinates from ORCA-job H2O_DFT E -75.126316752495
  O       0.026788      0.000000     -0.389548
  H      -0.166902      0.000000      1.400001
  H       1.070114      0.000000     -0.285453
3
Coordinates from ORCA-job H2O_DFT E -75.126318748751
  O       0.027729      0.000000     -0.388352
  H      -0.168277      0.000000      1.400945
  H       1.070548      0.000000     -0.287593
3
Coordinates from ORCA-job H2O_DFT E -75.126318758894
  O       0.027776      0.000000     -0.388359
  H      -0.168262      0.000000      1.400934
  H       1.070486      0.000000     -0.287575
3
Coordinates from ORCA-job H2O_DFT E -75.105151555996
  O       0.035193      0.000000     -0.440554
  H      -0.170334      0.000000      1.448297
  H       1.065141      0.000000     -0.282743
3
Coordinates from ORCA-job H2O_DFT E -75.105263828981
  O       0.033818      0.000000     -0.435351
  H      -0.176864      0.000000      1.452933
  H       1.073046      0.000000     -0.292582
3
Coordinates from ORCA-job H2O_DFT E -75.105307729086
  O       0.036104      0.000000     -0.429021
  H      -0.184192      0.000000      1.458165
  H       1.078088      0.000000     -0.304144
3
Coordinates from ORCA-job H2O_DFT E -75.105310871228
  O       0.037251      0.000000     -0.427321
  H      -0.186079      0.000000      1.459509
  H       1.078828      0.000000     -0.307188
3
Coordinates from ORCA-job H2O_DFT E -75.105310880449
  O       0.037327      0.000000     -0.427320
  H      -0.186068      0.000000      1.459501
  H       1.078741      0.000000     -0.307181
3
Coordinates from ORCA-job H2O_DFT E -75.086037658939
  O       0.045233      0.000000     -0.479610
  H      -0.188488      0.000000      1.506687
  H       1.073256      0.000000     -0.302077
3
Coordinates from ORCA-job H2O_DFT E -75.086127129452
  O       0.043816      0.000000     -0.474907
  H      -0.194223      0.000000      1.510876
  H       1.080407      0.000000     -0.310969
3
Coordinates from ORCA-job H2O_DFT E -75.086170943084
  O       0.045781      0.000000     -0.468248
  H      -0.201687      0.000000      1.516383
  H       1.085906      0.000000     -0.323134
3
Coordinates from ORCA-job H2O_DFT E -75.086175689039
  O       0.047140      0.000000     -0.465874
  H      -0.204240      0.000000      1.518265
  H       1.087101      0.000000     -0.327391
3
Coordinates from ORCA-job H2O_DFT E -75.086175743032
  O       0.047259      0.000000     -0.465853
  H      -0.204246      0.000000      1.518270
  H       1.086987      0.000000     -0.327416
3
Coordinates from ORCA-job H2O_DFT E -75.053400552469
  O       0.064011      0.000000     -0.570596
  H      -0.209770      0.000000      1.612302
  H       1.075759      0.000000     -0.316707
3
Coordinates from ORCA-job H2O_DFT E -75.053584070974
  O       0.062084      0.000000     -0.563428
  H      -0.218024      0.000000      1.618667
  H       1.085940      0.000000     -0.330238
3
Coordinates from ORCA-job H2O_DFT E -75.053755723287
  O       0.064894      0.000000     -0.546856
  H      -0.235661      0.000000      1.632517
  H       1.100767      0.000000     -0.360660
3
Coordinates from ORCA-job H2O_DFT E -75.053772899473
  O       0.067303      0.000000     -0.541588
  H      -0.240982      0.000000      1.636705
  H       1.103679      0.000000     -0.370117
3
Coordinates from ORCA-job H2O_DFT E -75.053773438238
  O       0.067694      0.000000     -0.541449
  H      -0.241068      0.000000      1.636776
  H       1.103374      0.000000     -0.370327
3
Coordinates from ORCA-job H2O_DFT E -75.053773442333
  O       0.067711      0.000000     -0.541502
  H      -0.241008      0.000000      1.636729
  H       1.103297      0.000000     -0.370227
3
Coordinates from ORCA-job H2O_DFT E -75.018070191515
  O       0.095428      0.000000     -0.699015
  H      -0.251214      0.000000      1.776837
  H       1.085786      0.000000     -0.352822
3
Coordinates from ORCA-job H2O_DFT E -75.018211506408
  O       0.095348      0.000000     -0.691582
  H      -0.258692      0.000000      1.783222
  H       1.093344      0.000000     -0.366641
3
Coordinates from ORCA-job H2O_DFT E -75.018558250363
  O       0.099569      0.000000     -0.651595
  H      -0.297638      0.000000      1.816649
  H       1.128069      0.000000     -0.440054
3
Coordinates from ORCA-job H2O_DFT E -75.018558308568
  O       0.099491      0.000000     -0.651308
  H      -0.297935      0.000000      1.816900
  H       1.128444      0.000000     -0.440592
