3
Coordinates from ORCA-job H2O E -75.316108908004
  O      -9.099310      2.555070      0.599386
  H      -8.530550      2.958430     -0.073503
  H      -8.621350      1.753410      0.859888
3
Coordinates from ORCA-job H2O E -75.321038937875
  O      -9.132020      2.567628      0.612193
  H      -8.513181      2.966241     -0.090788
  H      -8.606008      1.733041      0.864366
3
Coordinates from ORCA-job H2O E -75.321272401603
  O      -9.139900      2.570625      0.615298
  H      -8.510055      2.953916     -0.083956
  H      -8.601256      1.742370      0.854429
3
Coordinates from ORCA-job H2O E -75.321273699671
  O      -9.140082      2.570704      0.615363
  H      -8.510030      2.953053     -0.083348
  H      -8.601098      1.743153      0.853756
3
Coordinates from ORCA-job H2O E -75.321273710152
  O      -9.140043      2.570687      0.615349
  H      -8.510050      2.953054     -0.083336
  H      -8.601118      1.743170      0.853757
