3
Coordinates from ORCA-job H2O_HF E -65.757880553011
  O      -0.026983      0.000000      0.331733
  H       0.105622      0.000000      0.481452
  H       0.851360      0.000000     -0.088185
3
Coordinates from ORCA-job H2O_HF E -65.787797123235
  O      -0.017324      0.000000      0.327365
  H       0.074058      0.000000      0.505268
  H       0.873266      0.000000     -0.107633
3
Coordinates from ORCA-job H2O_HF E -65.808318542348
  O       0.013972      0.000000      0.318360
  H       0.052828      0.000000      0.514550
  H       0.863200      0.000000     -0.107910
3
Coordinates from ORCA-job H2O_HF E -65.816517555068
  O       0.036245      0.000000      0.321347
  H       0.025059      0.000000      0.521034
  H       0.868696      0.000000     -0.117380
3
Coordinates from ORCA-job H2O_HF E -65.818061321273
  O       0.047549      0.000000      0.325472
  H       0.010596      0.000000      0.522029
  H       0.871855      0.000000     -0.122501
3
Coordinates from ORCA-job H2O_HF E -65.818357243783
  O       0.054193      0.000000      0.328253
  H       0.003006      0.000000      0.521592
  H       0.872801      0.000000     -0.124845
3
Coordinates from ORCA-job H2O_HF E -65.818385820583
  O       0.056592      0.000000      0.329470
  H       0.000130      0.000000      0.521334
  H       0.873278      0.000000     -0.125804
3
Coordinates from ORCA-job H2O_HF E -65.818386766463
  O       0.057125      0.000000      0.329713
  H      -0.000437      0.000000      0.521250
  H       0.873312      0.000000     -0.125963
3
Coordinates from ORCA-job H2O_HF E -65.818386770934
  O       0.057154      0.000000      0.329734
  H      -0.000484      0.000000      0.521249
  H       0.873330      0.000000     -0.125983
3
Coordinates from ORCA-job H2O_HF E -72.996825519949
  O       0.070890      0.000000      0.250287
  H      -0.056199      0.000000      0.629561
  H       0.915309      0.000000     -0.154848
3
Coordinates from ORCA-job H2O_HF E -72.997831897198
  O       0.068619      0.000000      0.243752
  H      -0.045118      0.000000      0.627241
  H       0.906500      0.000000     -0.145993
3
Coordinates from ORCA-job H2O_HF E -72.999737976393
  O       0.050591      0.000000      0.230735
  H      -0.018768      0.000000      0.624675
  H       0.898178      0.000000     -0.130410
3
Coordinates from ORCA-job H2O_HF E -73.000332979018
  O       0.031800      0.000000      0.224203
  H      -0.000308      0.000000      0.622912
  H       0.898508      0.000000     -0.122115
3
Coordinates from ORCA-job H2O_HF E -73.000444574394
  O       0.034746      0.000000      0.227100
  H      -0.007411      0.000000      0.624872
  H       0.902665      0.000000     -0.126971
3
Coordinates from ORCA-job H2O_HF E -73.000446638596
  O       0.034075      0.000000      0.227113
  H      -0.007235      0.000000      0.624974
  H       0.903160      0.000000     -0.127088
3
Coordinates from ORCA-job H2O_HF E -73.000446641649
  O       0.034042      0.000000      0.227108
  H      -0.007213      0.000000      0.624974
  H       0.903171      0.000000     -0.127082
3
Coordinates from ORCA-job H2O_HF E -74.531419455396
  O       0.041884      0.000000      0.142292
  H      -0.046907      0.000000      0.735686
  H       0.935024      0.000000     -0.152978
3
Coordinates from ORCA-job H2O_HF E -74.532945319861
  O       0.026190      0.000000      0.137587
  H      -0.035545      0.000000      0.734402
  H       0.939355      0.000000     -0.146989
3
Coordinates from ORCA-job H2O_HF E -74.533560083326
  O       0.010426      0.000000      0.128007
  H      -0.012952      0.000000      0.727551
  H       0.932526      0.000000     -0.130558
3
Coordinates from ORCA-job H2O_HF E -74.533586814316
  O       0.012891      0.000000      0.129706
  H      -0.017069      0.000000      0.728957
  H       0.934178      0.000000     -0.133663
3
Coordinates from ORCA-job H2O_HF E -74.533586952895
  O       0.012696      0.000000      0.129598
  H      -0.016801      0.000000      0.728872
  H       0.934105      0.000000     -0.133470
3
Coordinates from ORCA-job H2O_HF E -74.784701954981
  O       0.017797      0.000000      0.087190
  H      -0.035142      0.000000      0.785185
  H       0.947344      0.000000     -0.147376
3
Coordinates from ORCA-job H2O_HF E -74.785009050978
  O       0.009083      0.000000      0.085017
  H      -0.029486      0.000000      0.783954
  H       0.950402      0.000000     -0.143970
3
Coordinates from ORCA-job H2O_HF E -74.785057081198
  O       0.005736      0.000000      0.082297
  H      -0.023507      0.000000      0.781686
  H       0.947771      0.000000     -0.138984
3
Coordinates from ORCA-job H2O_HF E -74.785058025113
  O       0.006004      0.000000      0.082624
  H      -0.024207      0.000000      0.781972
  H       0.948203      0.000000     -0.139597
3
Coordinates from ORCA-job H2O_HF E -74.785058025316
  O       0.005998      0.000000      0.082620
  H      -0.024197      0.000000      0.781968
  H       0.948199      0.000000     -0.139588
3
Coordinates from ORCA-job H2O_HF E -74.904779676652
  O       0.012020      0.000000      0.040633
  H      -0.042650      0.000000      0.838763
  H       0.960630      0.000000     -0.154397
3
Coordinates from ORCA-job H2O_HF E -74.905014932450
  O       0.003566      0.000000      0.038005
  H      -0.036689      0.000000      0.836991
  H       0.963123      0.000000     -0.149996
3
Coordinates from ORCA-job H2O_HF E -74.905032564251
  O       0.001891      0.000000      0.036090
  H      -0.032832      0.000000      0.835336
  H       0.960941      0.000000     -0.146426
3
Coordinates from ORCA-job H2O_HF E -74.905033348830
  O       0.002044      0.000000      0.036396
  H      -0.033436      0.000000      0.835609
  H       0.961392      0.000000     -0.147006
3
Coordinates from ORCA-job H2O_HF E -74.905033350210
  O       0.002042      0.000000      0.036394
  H      -0.033431      0.000000      0.835607
  H       0.961389      0.000000     -0.147000
3
Coordinates from ORCA-job H2O_HF E -74.936280784080
  O       0.005524      0.000000      0.015649
  H      -0.042847      0.000000      0.864271
  H       0.967323      0.000000     -0.154920
3
Coordinates from ORCA-job H2O_HF E -74.936330305954
  O       0.001463      0.000000      0.014223
  H      -0.039782      0.000000      0.863222
  H       0.968319      0.000000     -0.152445
3
Coordinates from ORCA-job H2O_HF E -74.936332663068
  O       0.000973      0.000000      0.013478
  H      -0.038345      0.000000      0.862569
  H       0.967372      0.000000     -0.151047
3
Coordinates from ORCA-job H2O_HF E -74.936332823066
  O       0.001011      0.000000      0.013613
  H      -0.038600      0.000000      0.862690
  H       0.967589      0.000000     -0.151303
3
Coordinates from ORCA-job H2O_HF E -74.954884472217
  O       0.004715      0.000000     -0.006981
  H      -0.048126      0.000000      0.891467
  H       0.973411      0.000000     -0.159486
3
Coordinates from ORCA-job H2O_HF E -74.954926182464
  O       0.000850      0.000000     -0.008493
  H      -0.045072      0.000000      0.890335
  H       0.974222      0.000000     -0.156842
3
Coordinates from ORCA-job H2O_HF E -74.954927585433
  O       0.000578      0.000000     -0.009086
  H      -0.043971      0.000000      0.889810
  H       0.973393      0.000000     -0.155724
3
Coordinates from ORCA-job H2O_HF E -74.954927704661
  O       0.000602      0.000000     -0.008968
  H      -0.044189      0.000000      0.889917
  H       0.973587      0.000000     -0.155949
3
Coordinates from ORCA-job H2O_HF E -74.962779659691
  O       0.003736      0.000000     -0.025322
  H      -0.051907      0.000000      0.913030
  H       0.978171      0.000000     -0.162708
3
Coordinates from ORCA-job H2O_HF E -74.962802631106
  O       0.000793      0.000000     -0.026574
  H      -0.049487      0.000000      0.912080
  H       0.978694      0.000000     -0.160506
3
Coordinates from ORCA-job H2O_HF E -74.962803223982
  O       0.000687      0.000000     -0.026960
  H      -0.048793      0.000000      0.911737
  H       0.978105      0.000000     -0.159777
3
Coordinates from ORCA-job H2O_HF E -74.962803284808
  O       0.000700      0.000000     -0.026875
  H      -0.048945      0.000000      0.911813
  H       0.978246      0.000000     -0.159938
3
Coordinates from ORCA-job H2O_HF E -74.964839389397
  O       0.002333      0.000000     -0.035004
  H      -0.052846      0.000000      0.923409
  H       0.980514      0.000000     -0.163404
3
Coordinates from ORCA-job H2O_HF E -74.964844692963
  O       0.000903      0.000000     -0.035642
  H      -0.051638      0.000000      0.922919
  H       0.980735      0.000000     -0.162277
3
Coordinates from ORCA-job H2O_HF E -74.964844811219
  O       0.000875      0.000000     -0.035813
  H      -0.051335      0.000000      0.922766
  H       0.980460      0.000000     -0.161953
3
Coordinates from ORCA-job H2O_HF E -74.965792106779
  O       0.002539      0.000000     -0.043917
  H      -0.055255      0.000000      0.934378
  H       0.982716      0.000000     -0.165461
3
Coordinates from ORCA-job H2O_HF E -74.965796911659
  O       0.001138      0.000000     -0.044514
  H      -0.054141      0.000000      0.933925
  H       0.983003      0.000000     -0.164411
3
Coordinates from ORCA-job H2O_HF E -74.965797037557
  O       0.001138      0.000000     -0.044676
  H      -0.053859      0.000000      0.933780
  H       0.982721      0.000000     -0.164104
3
Coordinates from ORCA-job H2O_HF E -74.965769506190
  O       0.002833      0.000000     -0.052754
  H      -0.057799      0.000000      0.945407
  H       0.984966      0.000000     -0.167653
3
Coordinates from ORCA-job H2O_HF E -74.965773932612
  O       0.001476      0.000000     -0.053357
  H      -0.056698      0.000000      0.944949
  H       0.985222      0.000000     -0.166592
3
Coordinates from ORCA-job H2O_HF E -74.965774041413
  O       0.001491      0.000000     -0.053503
  H      -0.056447      0.000000      0.944817
  H       0.984956      0.000000     -0.166314
3
Coordinates from ORCA-job H2O_HF E -74.962074965143
  O       0.005799      0.000000     -0.073616
  H      -0.066342      0.000000      0.973902
  H       0.990543      0.000000     -0.175286
3
Coordinates from ORCA-job H2O_HF E -74.962098339807
  O       0.002641      0.000000     -0.075203
  H      -0.063602      0.000000      0.972705
  H       0.990961      0.000000     -0.172502
3
Coordinates from ORCA-job H2O_HF E -74.962098818650
  O       0.002735      0.000000     -0.075487
  H      -0.063126      0.000000      0.972446
  H       0.990391      0.000000     -0.171959
3
Coordinates from ORCA-job H2O_HF E -74.962098865361
  O       0.002742      0.000000     -0.075406
  H      -0.063262      0.000000      0.972517
  H       0.990520      0.000000     -0.172111
3
Coordinates from ORCA-job H2O_HF E -74.954273595950
  O       0.007229      0.000000     -0.095355
  H      -0.073287      0.000000      1.001694
  H       0.996057      0.000000     -0.181339
3
Coordinates from ORCA-job H2O_HF E -74.954293168257
  O       0.004314      0.000000     -0.096994
  H      -0.070584      0.000000      1.000453
  H       0.996270      0.000000     -0.178460
3
Coordinates from ORCA-job H2O_HF E -74.954293514790
  O       0.004450      0.000000     -0.097208
  H      -0.070231      0.000000      1.000254
  H       0.995782      0.000000     -0.178045
3
Coordinates from ORCA-job H2O_HF E -74.954293549829
  O       0.004448      0.000000     -0.097139
  H      -0.070345      0.000000      1.000315
  H       0.995897      0.000000     -0.178176
3
Coordinates from ORCA-job H2O_HF E -74.930225513012
  O       0.013747      0.000000     -0.136670
  H      -0.090627      0.000000      1.058782
  H       1.006879      0.000000     -0.197113
3
Coordinates from ORCA-job H2O_HF E -74.930280025539
  O       0.008771      0.000000     -0.139863
  H      -0.085785      0.000000      1.056406
  H       1.007014      0.000000     -0.191543
3
Coordinates from ORCA-job H2O_HF E -74.930281135245
  O       0.009111      0.000000     -0.140171
  H      -0.085293      0.000000      1.056109
  H       1.006182      0.000000     -0.190938
3
Coordinates from ORCA-job H2O_HF E -74.930281220582
  O       0.009107      0.000000     -0.140053
  H      -0.085479      0.000000      1.056214
  H       1.006372      0.000000     -0.191161
3
Coordinates from ORCA-job H2O_HF E -74.865925832757
  O       0.028866      0.000000     -0.217713
  H      -0.126942      0.000000      1.173590
  H       1.028076      0.000000     -0.230877
3
Coordinates from ORCA-job H2O_HF E -74.866036798202
  O       0.021818      0.000000     -0.223480
  H      -0.119317      0.000000      1.169388
  H       1.027499      0.000000     -0.220908
3
Coordinates from ORCA-job H2O_HF E -74.866039652020
  O       0.022295      0.000000     -0.224111
  H      -0.118377      0.000000      1.168803
  H       1.026082      0.000000     -0.219692
3
Coordinates from ORCA-job H2O_HF E -74.866039830840
  O       0.022281      0.000000     -0.223912
  H      -0.118663      0.000000      1.168975
  H       1.026382      0.000000     -0.220063
3
Coordinates from ORCA-job H2O_HF E -74.831082353144
  O       0.029255      0.000000     -0.275169
  H      -0.121384      0.000000      1.217248
  H       1.022129      0.000000     -0.217078
3
Coordinates from ORCA-job H2O_HF E -74.831372207631
  O       0.026025      0.000000     -0.268346
  H      -0.131141      0.000000      1.223398
  H       1.035116      0.000000     -0.230052
3
Coordinates from ORCA-job H2O_HF E -74.831409973067
  O       0.029230      0.000000     -0.265509
  H      -0.134716      0.000000      1.225504
  H       1.035486      0.000000     -0.234995
3
Coordinates from ORCA-job H2O_HF E -74.831411361356
  O       0.029964      0.000000     -0.264804
  H      -0.135609      0.000000      1.226030
  H       1.035645      0.000000     -0.236227
3
Coordinates from ORCA-job H2O_HF E -74.831411367370
  O       0.029963      0.000000     -0.264800
  H      -0.135613      0.000000      1.226033
  H       1.035650      0.000000     -0.236233
3
Coordinates from ORCA-job H2O_HF E -74.762863095936
  O       0.044887      0.000000     -0.367560
  H      -0.141657      0.000000      1.322175
  H       1.026770      0.000000     -0.229615
3
Coordinates from ORCA-job H2O_HF E -74.763634666062
  O       0.039203      0.000000     -0.356136
  H      -0.157154      0.000000      1.332486
  H       1.047951      0.000000     -0.251350
3
Coordinates from ORCA-job H2O_HF E -74.763799663759
  O       0.044734      0.000000     -0.347855
  H      -0.166953      0.000000      1.338914
  H       1.052219      0.000000     -0.266058
3
Coordinates from ORCA-job H2O_HF E -74.763812650998
  O       0.046980      0.000000     -0.345059
  H      -0.170188      0.000000      1.341013
  H       1.053208      0.000000     -0.270953
3
Coordinates from ORCA-job H2O_HF E -74.763812664843
  O       0.046952      0.000000     -0.345124
  H      -0.170110      0.000000      1.340962
  H       1.053158      0.000000     -0.270838
3
Coordinates from ORCA-job H2O_HF E -74.732093225495
  O       0.055326      0.000000     -0.396718
  H      -0.173710      0.000000      1.388652
  H       1.048384      0.000000     -0.266934
3
Coordinates from ORCA-job H2O_HF E -74.732264752995
  O       0.052407      0.000000     -0.391074
  H      -0.181065      0.000000      1.393720
  H       1.058658      0.000000     -0.277646
3
Coordinates from ORCA-job H2O_HF E -74.732306799201
  O       0.055075      0.000000     -0.386753
  H      -0.185947      0.000000      1.397038
  H       1.060872      0.000000     -0.285285
3
Coordinates from ORCA-job H2O_HF E -74.732311523566
  O       0.056385      0.000000     -0.384809
  H      -0.188119      0.000000      1.398508
  H       1.061734      0.000000     -0.288699
3
Coordinates from ORCA-job H2O_HF E -74.732311533508
  O       0.056376      0.000000     -0.384831
  H      -0.188094      0.000000      1.398490
  H       1.061717      0.000000     -0.288660
3
Coordinates from ORCA-job H2O_HF E -74.702801774462
  O       0.065203      0.000000     -0.436511
  H      -0.191991      0.000000      1.446001
  H       1.056788      0.000000     -0.284491
3
Coordinates from ORCA-job H2O_HF E -74.702939715431
  O       0.062346      0.000000     -0.431427
  H      -0.198464      0.000000      1.450587
  H       1.066118      0.000000     -0.294160
3
Coordinates from ORCA-job H2O_HF E -74.702981171310
  O       0.064682      0.000000     -0.426870
  H      -0.203459      0.000000      1.454114
  H       1.068777      0.000000     -0.302245
3
Coordinates from ORCA-job H2O_HF E -74.702988239177
  O       0.066245      0.000000     -0.424175
  H      -0.206374      0.000000      1.456166
  H       1.070129      0.000000     -0.306991
3
Coordinates from ORCA-job H2O_HF E -74.702988243792
  O       0.066231      0.000000     -0.424215
  H      -0.206329      0.000000      1.456134
  H       1.070098      0.000000     -0.306919
3
Coordinates from ORCA-job H2O_HF E -74.675947599528
  O       0.075499      0.000000     -0.475968
  H      -0.210519      0.000000      1.503475
  H       1.065020      0.000000     -0.302507
3
Coordinates from ORCA-job H2O_HF E -74.676056603044
  O       0.072736      0.000000     -0.471446
  H      -0.216161      0.000000      1.507579
  H       1.073425      0.000000     -0.311132
3
Coordinates from ORCA-job H2O_HF E -74.676096004596
  O       0.074702      0.000000     -0.466811
  H      -0.221101      0.000000      1.511193
  H       1.076398      0.000000     -0.319382
3
Coordinates from ORCA-job H2O_HF E -74.676105926861
  O       0.076500      0.000000     -0.463178
  H      -0.224918      0.000000      1.513978
  H       1.078418      0.000000     -0.325800
3
Coordinates from ORCA-job H2O_HF E -74.676105942761
  O       0.076477      0.000000     -0.463256
  H      -0.224834      0.000000      1.513917
  H       1.078357      0.000000     -0.325661
3
Coordinates from ORCA-job H2O_HF E -74.629535068391
  O       0.095875      0.000000     -0.566884
  H      -0.233790      0.000000      1.608276
  H       1.067915      0.000000     -0.316392
3
Coordinates from ORCA-job H2O_HF E -74.629750975564
  O       0.091838      0.000000     -0.560315
  H      -0.241679      0.000000      1.614258
  H       1.079841      0.000000     -0.328942
3
Coordinates from ORCA-job H2O_HF E -74.629884258702
  O       0.093868      0.000000     -0.550234
  H      -0.252096      0.000000      1.622394
  H       1.088228      0.000000     -0.347160
3
Coordinates from ORCA-job H2O_HF E -74.629938097621
  O       0.097688      0.000000     -0.539431
  H      -0.262889      0.000000      1.630818
  H       1.095200      0.000000     -0.366387
3
Coordinates from ORCA-job H2O_HF E -74.629938387272
  O       0.097692      0.000000     -0.539989
  H      -0.262297      0.000000      1.630359
  H       1.094606      0.000000     -0.365370
3
Coordinates from ORCA-job H2O_HF E -74.629938383515
  O       0.097702      0.000000     -0.540009
  H      -0.262274      0.000000      1.630340
  H       1.094572      0.000000     -0.365331
3
Coordinates from ORCA-job H2O_HF E -74.577630896404
  O       0.129218      0.000000     -0.695734
  H      -0.277351      0.000000      1.770984
  H       1.078133      0.000000     -0.350250
3
Coordinates from ORCA-job H2O_HF E -74.577776772547
  O       0.127410      0.000000     -0.689020
  H      -0.284386      0.000000      1.776832
  H       1.086976      0.000000     -0.362812
3
Coordinates from ORCA-job H2O_HF E -74.578109711395
  O       0.128862      0.000000     -0.655518
  H      -0.316874      0.000000      1.804425
  H       1.118012      0.000000     -0.423907
3
Coordinates from ORCA-job H2O_HF E -74.578125882692
  O       0.130822      0.000000     -0.650510
  H      -0.321361      0.000000      1.808256
  H       1.120538      0.000000     -0.432746
3
Coordinates from ORCA-job H2O_HF E -74.578126592981
  O       0.131163      0.000000     -0.650795
  H      -0.321019      0.000000      1.807971
  H       1.119856      0.000000     -0.432177
3
Coordinates from ORCA-job H2O_HF E -74.578126596514
  O       0.131158      0.000000     -0.650775
  H      -0.321039      0.000000      1.807989
  H       1.119881      0.000000     -0.432214
