3
Coordinates from ORCA-job H2O_CASCI E -74.050108857055
  O      -0.025571      0.000000      0.189611
  H       0.076009      0.000000      0.679184
  H       0.879563      0.000000     -0.143795
3
Coordinates from ORCA-job H2O_CASCI E -74.053195507837
  O      -0.018604      0.000000      0.200132
  H       0.045145      0.000000      0.696051
  H       0.903459      0.000000     -0.171183
3
Coordinates from ORCA-job H2O_CASCI E -74.054720872361
  O      -0.000054      0.000000      0.201185
  H       0.032022      0.000000      0.700155
  H       0.898032      0.000000     -0.176340
3
Coordinates from ORCA-job H2O_CASCI E -74.054738866065
  O       0.002547      0.000000      0.201643
  H       0.029690      0.000000      0.700906
  H       0.897763      0.000000     -0.177549
3
Coordinates from ORCA-job H2O_CASCI E -74.054739821931
  O       0.002691      0.000000      0.201757
  H       0.029376      0.000000      0.701044
  H       0.897933      0.000000     -0.177800
3
Coordinates from ORCA-job H2O_CASCI E -74.054739857736
  O       0.002704      0.000000      0.201764
  H       0.029353      0.000000      0.701054
  H       0.897943      0.000000     -0.177818
3
Coordinates from ORCA-job H2O_CASCI E -74.485178835779
  O       0.001979      0.000000      0.129344
  H       0.009633      0.000000      0.795966
  H       0.918388      0.000000     -0.200310
3
Coordinates from ORCA-job H2O_CASCI E -74.488165331600
  O      -0.022803      0.000000      0.132331
  H       0.013208      0.000000      0.798024
  H       0.939594      0.000000     -0.205355
3
Coordinates from ORCA-job H2O_CASCI E -74.488735750942
  O      -0.029466      0.000000      0.126024
  H       0.028778      0.000000      0.790141
  H       0.930687      0.000000     -0.191165
3
Coordinates from ORCA-job H2O_CASCI E -74.488663110821
  O      -0.029219      0.000000      0.124513
  H       0.031792      0.000000      0.788383
  H       0.927426      0.000000     -0.187896
3
Coordinates from ORCA-job H2O_CASCI E -74.488670440469
  O      -0.028973      0.000000      0.124681
  H       0.031337      0.000000      0.788614
  H       0.927636      0.000000     -0.188295
3
Coordinates from ORCA-job H2O_CASCI E -74.488671033140
  O      -0.028952      0.000000      0.124695
  H       0.031298      0.000000      0.788634
  H       0.927654      0.000000     -0.188329
3
Coordinates from ORCA-job H2O_CASCI E -74.503345582655
  O      -0.028029      0.000000      0.052430
  H       0.013601      0.000000      0.884723
  H       0.944428      0.000000     -0.212153
3
Coordinates from ORCA-job H2O_CASCI E -74.504452010422
  O      -0.047737      0.000000      0.047320
  H       0.029372      0.000000      0.877079
  H       0.948365      0.000000     -0.199399
3
Coordinates from ORCA-job H2O_CASCI E -74.504369317581
  O      -0.051616      0.000000      0.043611
  H       0.037927      0.000000      0.872120
  H       0.943689      0.000000     -0.190731
3
Coordinates from ORCA-job H2O_CASCI E -74.504443986541
  O      -0.050474      0.000000      0.045053
  H       0.034704      0.000000      0.874022
  H       0.945771      0.000000     -0.194075
3
Coordinates from ORCA-job H2O_CASCI E -74.504442498410
  O      -0.050519      0.000000      0.045007
  H       0.034809      0.000000      0.873960
  H       0.945710      0.000000     -0.193967
3
Coordinates from ORCA-job H2O_CASCI E -74.500488092478
  O      -0.047261      0.000000     -0.026376
  H       0.017450      0.000000      0.971528
  H       0.959811      0.000000     -0.220151
3
Coordinates from ORCA-job H2O_CASCI E -74.501134298469
  O      -0.064449      0.000000     -0.032411
  H       0.032159      0.000000      0.962911
  H       0.962290      0.000000     -0.205500
3
Coordinates from ORCA-job H2O_CASCI E -74.501112437315
  O      -0.065261      0.000000     -0.034261
  H       0.035723      0.000000      0.960627
  H       0.959538      0.000000     -0.201366
3
Coordinates from ORCA-job H2O_CASCI E -74.501129256834
  O      -0.064788      0.000000     -0.033493
  H       0.034208      0.000000      0.961595
  H       0.960580      0.000000     -0.203101
3
Coordinates from ORCA-job H2O_CASCI E -74.501129375839
  O      -0.064774      0.000000     -0.033482
  H       0.034185      0.000000      0.961609
  H       0.960589      0.000000     -0.203127
3
Coordinates from ORCA-job H2O_CASCI E -74.502511340522
  O      -0.059221      0.000000     -0.103557
  H       0.016280      0.000000      1.060664
  H       0.972941      0.000000     -0.232106
3
Coordinates from ORCA-job H2O_CASCI E -74.502968533154
  O      -0.072524      0.000000     -0.109256
  H       0.027756      0.000000      1.053093
  H       0.974768      0.000000     -0.218836
3
Coordinates from ORCA-job H2O_CASCI E -74.502952835196
  O      -0.073439      0.000000     -0.111306
  H       0.031344      0.000000      1.050646
  H       0.972095      0.000000     -0.214339
3
Coordinates from ORCA-job H2O_CASCI E -74.502963292051
  O      -0.072884      0.000000     -0.110461
  H       0.029835      0.000000      1.051675
  H       0.973049      0.000000     -0.216215
3
Coordinates from ORCA-job H2O_CASCI E -74.502963362053
  O      -0.072862      0.000000     -0.110437
  H       0.029792      0.000000      1.051704
  H       0.973070      0.000000     -0.216267
3
Coordinates from ORCA-job H2O_CASCI E -74.500081872070
  O      -0.065351      0.000000     -0.179030
  H       0.011050      0.000000      1.152113
  H       0.984302      0.000000     -0.248083
3
Coordinates from ORCA-job H2O_CASCI E -74.500506730223
  O      -0.076573      0.000000     -0.185552
  H       0.022042      0.000000      1.144129
  H       0.984531      0.000000     -0.233577
3
Coordinates from ORCA-job H2O_CASCI E -74.500495081125
  O      -0.078561      0.000000     -0.188584
  H       0.026934      0.000000      1.140569
  H       0.981627      0.000000     -0.226985
3
Coordinates from ORCA-job H2O_CASCI E -74.500510288242
  O      -0.077966      0.000000     -0.187503
  H       0.025196      0.000000      1.141833
  H       0.982770      0.000000     -0.229330
3
Coordinates from ORCA-job H2O_CASCI E -74.500510024455
  O      -0.077987      0.000000     -0.187537
  H       0.025250      0.000000      1.141794
  H       0.982737      0.000000     -0.229257
3
Coordinates from ORCA-job H2O_CASCI E -74.489537638562
  O      -0.069010      0.000000     -0.254728
  H       0.006006      0.000000      1.243395
  H       0.993004      0.000000     -0.263667
3
Coordinates from ORCA-job H2O_CASCI E -74.489984002321
  O      -0.079468      0.000000     -0.263215
  H       0.018474      0.000000      1.233584
  H       0.990994      0.000000     -0.245369
3
Coordinates from ORCA-job H2O_CASCI E -74.489986292942
  O      -0.083410      0.000000     -0.268560
  H       0.026349      0.000000      1.227419
  H       0.987061      0.000000     -0.233860
3
Coordinates from ORCA-job H2O_CASCI E -74.490023166364
  O      -0.082899      0.000000     -0.267143
  H       0.024269      0.000000      1.229023
  H       0.988630      0.000000     -0.236880
3
Coordinates from ORCA-job H2O_CASCI E -74.490018908065
  O      -0.082973      0.000000     -0.267341
  H       0.024558      0.000000      1.228800
  H       0.988414      0.000000     -0.236459
3
Coordinates from ORCA-job H2O_CASCI E -74.471999910260
  O      -0.084616      0.000000     -0.354052
  H       0.035651      0.000000      1.308269
  H       0.978965      0.000000     -0.229217
3
Coordinates from ORCA-job H2O_CASCI E -74.472801844904
  O      -0.091035      0.000000     -0.350581
  H       0.030663      0.000000      1.311637
  H       0.990372      0.000000     -0.236056
3
Coordinates from ORCA-job H2O_CASCI E -74.472689318721
  O      -0.090577      0.000000     -0.352470
  H       0.033287      0.000000      1.309588
  H       0.987289      0.000000     -0.232118
3
Coordinates from ORCA-job H2O_CASCI E -74.472663733013
  O      -0.091068      0.000000     -0.353584
  H       0.034811      0.000000      1.308322
  H       0.986258      0.000000     -0.229738
3
Coordinates from ORCA-job H2O_CASCI E -74.472661362293
  O      -0.091530      0.000000     -0.354208
  H       0.035659      0.000000      1.307598
  H       0.985872      0.000000     -0.228390
3
Coordinates from ORCA-job H2O_CASCI E -74.472661618509
  O      -0.091665      0.000000     -0.354371
  H       0.035880      0.000000      1.307408
  H       0.985785      0.000000     -0.228036
3
Coordinates from ORCA-job H2O_CASCI E -74.451475598259
  O      -0.092543      0.000000     -0.441423
  H       0.047951      0.000000      1.386519
  H       0.974592      0.000000     -0.220096
3
Coordinates from ORCA-job H2O_CASCI E -74.452050249995
  O      -0.099329      0.000000     -0.445291
  H       0.052331      0.000000      1.381759
  H       0.976998      0.000000     -0.211468
3
Coordinates from ORCA-job H2O_CASCI E -74.452475740124
  O      -0.113130      0.000000     -0.461673
  H       0.072714      0.000000      1.362217
  H       0.970416      0.000000     -0.175544
3
Coordinates from ORCA-job H2O_CASCI E -74.451761852362
  O      -0.124852      0.000000     -0.483713
  H       0.101613      0.000000      1.335580
  H       0.953239      0.000000     -0.126867
3
Coordinates from ORCA-job H2O_CASCI E -74.450657682079
  O      -0.126407      0.000000     -0.493181
  H       0.114834      0.000000      1.324210
  H       0.941573      0.000000     -0.106029
3
Coordinates from ORCA-job H2O_CASCI E -74.450628943656
  O      -0.121795      0.000000     -0.488495
  H       0.109098      0.000000      1.330241
  H       0.942698      0.000000     -0.116746
3
Coordinates from ORCA-job H2O_CASCI E -74.450724685746
  O      -0.112796      0.000000     -0.477478
  H       0.095379      0.000000      1.343998
  H       0.947417      0.000000     -0.141520
3
Coordinates from ORCA-job H2O_CASCI E -74.450945698903
  O      -0.105492      0.000000     -0.466330
  H       0.081355      0.000000      1.357458
  H       0.954137      0.000000     -0.166128
3
Coordinates from ORCA-job H2O_CASCI E -74.451323696315
  O      -0.106430      0.000000     -0.464422
  H       0.078647      0.000000      1.359546
  H       0.957783      0.000000     -0.170124
3
Coordinates from ORCA-job H2O_CASCI E -74.451978592310
  O      -0.116581      0.000000     -0.471624
  H       0.086976      0.000000      1.350374
  H       0.959605      0.000000     -0.153750
3
Coordinates from ORCA-job H2O_CASCI E -74.451725908698
  O      -0.117270      0.000000     -0.474862
  H       0.091359      0.000000      1.346562
  H       0.955911      0.000000     -0.146699
3
Coordinates from ORCA-job H2O_CASCI E -74.451094305133
  O      -0.113755      0.000000     -0.475754
  H       0.093176      0.000000      1.345864
  H       0.950579      0.000000     -0.145110
3
Coordinates from ORCA-job H2O_CASCI E -74.451365328491
  O      -0.114023      0.000000     -0.473957
  H       0.090654      0.000000      1.347915
  H       0.953368      0.000000     -0.148958
3
Coordinates from ORCA-job H2O_CASCI E -74.451474741988
  O      -0.114325      0.000000     -0.473424
  H       0.089870      0.000000      1.348502
  H       0.954455      0.000000     -0.150078
3
Coordinates from ORCA-job H2O_CASCI E -74.451461175608
  O      -0.114273      0.000000     -0.473473
  H       0.089946      0.000000      1.348451
  H       0.954327      0.000000     -0.149978
3
Coordinates from ORCA-job H2O_CASCI E -74.432903479958
  O      -0.115399      0.000000     -0.560161
  H       0.105889      0.000000      1.427560
  H       0.939510      0.000000     -0.142399
3
Coordinates from ORCA-job H2O_CASCI E -74.432593736344
  O      -0.118368      0.000000     -0.579716
  H       0.130345      0.000000      1.404759
  H       0.918023      0.000000     -0.100044
3
Coordinates from ORCA-job H2O_CASCI E -74.430904382273
  O      -0.123067      0.000000     -0.612326
  H       0.171682      0.000000      1.365836
  H       0.881385      0.000000     -0.028509
3
Coordinates from ORCA-job H2O_CASCI E -74.428631281157
  O      -0.125641      0.000000     -0.633654
  H       0.199228      0.000000      1.339784
  H       0.856413      0.000000      0.018870
3
Coordinates from ORCA-job H2O_CASCI E -74.426622763725
  O      -0.127707      0.000000     -0.647769
  H       0.217437      0.000000      1.322225
  H       0.840270      0.000000      0.050543
3
Coordinates from ORCA-job H2O_CASCI E -74.424808563717
  O      -0.129555      0.000000     -0.658312
  H       0.230961      0.000000      1.308927
  H       0.828594      0.000000      0.074385
3
Coordinates from ORCA-job H2O_CASCI E -74.422383981751
  O      -0.131109      0.000000     -0.668737
  H       0.244548      0.000000      1.295667
  H       0.816561      0.000000      0.098070
3
Coordinates from ORCA-job H2O_CASCI E -74.419218580247
  O      -0.132419      0.000000     -0.679047
  H       0.258185      0.000000      1.282440
  H       0.804234      0.000000      0.121607
3
Coordinates from ORCA-job H2O_CASCI E -74.415147384338
  O      -0.133522      0.000000     -0.689243
  H       0.271860      0.000000      1.269242
  H       0.791662      0.000000      0.145001
3
Coordinates from ORCA-job H2O_CASCI E -74.413791330324
  O      -0.140558      0.000000     -0.699567
  H       0.281543      0.000000      1.255383
  H       0.789015      0.000000      0.169184
3
Coordinates from ORCA-job H2O_CASCI E -74.409922930188
  O      -0.145517      0.000000     -0.709960
  H       0.293018      0.000000      1.241370
  H       0.782500      0.000000      0.193590
3
Coordinates from ORCA-job H2O_CASCI E -74.404792406681
  O      -0.150914      0.000000     -0.720503
  H       0.304428      0.000000      1.226973
  H       0.776486      0.000000      0.218530
3
Coordinates from ORCA-job H2O_CASCI E -74.397642238074
  O      -0.155931      0.000000     -0.730929
  H       0.316084      0.000000      1.212574
  H       0.769847      0.000000      0.243355
3
Coordinates from ORCA-job H2O_CASCI E -74.388925464491
  O      -0.161720      0.000000     -0.741351
  H       0.327039      0.000000      1.198009
  H       0.764681      0.000000      0.268342
3
Coordinates from ORCA-job H2O_CASCI E -74.379013983410
  O      -0.168923      0.000000     -0.751780
  H       0.336536      0.000000      1.183294
  H       0.762387      0.000000      0.293487
3
Coordinates from ORCA-job H2O_CASCI E -74.372218274567
  O      -0.180087      0.000000     -0.761730
  H       0.340520      0.000000      1.169324
  H       0.769568      0.000000      0.317406
3
Coordinates from ORCA-job H2O_CASCI E -74.366465042984
  O      -0.192437      0.000000     -0.771123
  H       0.341981      0.000000      1.156154
  H       0.780456      0.000000      0.339969
3
Coordinates from ORCA-job H2O_CASCI E -74.368614959242
  O      -0.206587      0.000000     -0.778330
  H       0.336478      0.000000      1.146529
  H       0.800109      0.000000      0.356801
3
Coordinates from ORCA-job H2O_CASCI E -74.359821345730
  O      -0.218695      0.000000     -0.787714
  H       0.339006      0.000000      1.132955
  H       0.809689      0.000000      0.379758
3
Coordinates from ORCA-job H2O_CASCI E -74.362509463567
  O      -0.232512      0.000000     -0.794702
  H       0.332910      0.000000      1.123708
  H       0.829602      0.000000      0.395995
3
Coordinates from ORCA-job H2O_CASCI E -74.361215521477
  O      -0.246084      0.000000     -0.802589
  H       0.329703      0.000000      1.112736
  H       0.846381      0.000000      0.414854
3
Coordinates from ORCA-job H2O_CASCI E -74.360723543584
  O      -0.259627      0.000000     -0.810318
  H       0.326143      0.000000      1.101977
  H       0.863484      0.000000      0.433341
3
Coordinates from ORCA-job H2O_CASCI E -74.360841239189
  O      -0.273115      0.000000     -0.817963
  H       0.322480      0.000000      1.091295
  H       0.880635      0.000000      0.451669
3
Coordinates from ORCA-job H2O_CASCI E -74.361506363963
  O      -0.286545      0.000000     -0.825558
  H       0.318836      0.000000      1.080620
  H       0.897709      0.000000      0.469937
3
Coordinates from ORCA-job H2O_CASCI E -74.362662309493
  O      -0.299917      0.000000     -0.833124
  H       0.315301      0.000000      1.069902
  H       0.914616      0.000000      0.488221
3
Coordinates from ORCA-job H2O_CASCI E -74.364248554433
  O      -0.313235      0.000000     -0.840676
  H       0.311946      0.000000      1.059100
  H       0.931289      0.000000      0.506576
3
Coordinates from ORCA-job H2O_CASCI E -74.365426204328
  O      -0.333136      0.000000     -0.852212
  H       0.308491      0.000000      1.042073
  H       0.954645      0.000000      0.535139
3
Coordinates from ORCA-job H2O_CASCI E -74.367940935003
  O      -0.362734      0.000000     -0.869480
  H       0.304807      0.000000      1.015829
  H       0.987927      0.000000      0.578651
3
Coordinates from ORCA-job H2O_CASCI E -74.376744459164
  O      -0.381996      0.000000     -0.880372
  H       0.299459      0.000000      0.999952
  H       1.012537      0.000000      0.605419
3
Coordinates from ORCA-job H2O_CASCI E -74.383534960576
  O      -0.401960      0.000000     -0.891774
  H       0.296462      0.000000      0.982314
  H       1.035497      0.000000      0.634461
3
Coordinates from ORCA-job H2O_CASCI E -74.386830472874
  O      -0.415365      0.000000     -0.899443
  H       0.295915      0.000000      0.969803
  H       1.049450      0.000000      0.654640
3
Coordinates from ORCA-job H2O_CASCI E -74.390327567247
  O      -0.428783      0.000000     -0.907089
  H       0.295779      0.000000      0.957049
  H       1.063004      0.000000      0.675040
3
Coordinates from ORCA-job H2O_CASCI E -74.391604931300
  O      -0.442265      0.000000     -0.914712
  H       0.297685      0.000000      0.943371
  H       1.074580      0.000000      0.696341
3
Coordinates from ORCA-job H2O_CASCI E -74.397517408604
  O      -0.455559      0.000000     -0.922259
  H       0.297006      0.000000      0.930751
  H       1.088553      0.000000      0.716507
3
Coordinates from ORCA-job H2O_CASCI E -74.393369608998
  O      -0.475611      0.000000     -0.933067
  H       0.305941      0.000000      0.907904
  H       1.099669      0.000000      0.750163
3
Coordinates from ORCA-job H2O_CASCI E -74.399567477876
  O      -0.488802      0.000000     -0.940495
  H       0.306582      0.000000      0.894543
  H       1.112220      0.000000      0.770952
3
Coordinates from ORCA-job H2O_CASCI E -74.401676210847
  O      -0.502220      0.000000     -0.947667
  H       0.310728      0.000000      0.879658
  H       1.121491      0.000000      0.793009
3
Coordinates from ORCA-job H2O_CASCI E -74.403444728159
  O      -0.515613      0.000000     -0.954649
  H       0.315814      0.000000      0.864342
  H       1.129800      0.000000      0.815307
3
Coordinates from ORCA-job H2O_CASCI E -74.404947093885
  O      -0.528963      0.000000     -0.961407
  H       0.321819      0.000000      0.848612
  H       1.137143      0.000000      0.837795
3
Coordinates from ORCA-job H2O_CASCI E -74.406288630003
  O      -0.542250      0.000000     -0.967910
  H       0.328706      0.000000      0.832489
  H       1.143544      0.000000      0.860421
3
Coordinates from ORCA-job H2O_CASCI E -74.407501872875
  O      -0.555456      0.000000     -0.974121
  H       0.336486      0.000000      0.815974
  H       1.148971      0.000000      0.883147
3
Coordinates from ORCA-job H2O_CASCI E -74.408601530455
  O      -0.568559      0.000000     -0.979997
  H       0.345186      0.000000      0.799068
  H       1.153373      0.000000      0.905929
3
Coordinates from ORCA-job H2O_CASCI E -74.409597983423
  O      -0.581533      0.000000     -0.985489
  H       0.354837      0.000000      0.781772
  H       1.156695      0.000000      0.928718
3
Coordinates from ORCA-job H2O_CASCI E -74.410500257431
  O      -0.594347      0.000000     -0.990546
  H       0.365472      0.000000      0.764090
  H       1.158875      0.000000      0.951456
3
Coordinates from ORCA-job H2O_CASCI E -74.411316452939
  O      -0.606968      0.000000     -0.995108
  H       0.377122      0.000000      0.746031
  H       1.159846      0.000000      0.974077
3
Coordinates from ORCA-job H2O_CASCI E -74.412053633278
  O      -0.619354      0.000000     -0.999113
  H       0.389818      0.000000      0.727610
  H       1.159536      0.000000      0.996503
3
Coordinates from ORCA-job H2O_CASCI E -74.412717567827
  O      -0.631456      0.000000     -1.002491
  H       0.403586      0.000000      0.708850
  H       1.157869      0.000000      1.018641
3
Coordinates from ORCA-job H2O_CASCI E -74.413312393594
  O      -0.643220      0.000000     -1.005168
  H       0.418448      0.000000      0.689783
  H       1.154771      0.000000      1.040385
3
Coordinates from ORCA-job H2O_CASCI E -74.413840315674
  O      -0.654582      0.000000     -1.007067
  H       0.434415      0.000000      0.670457
  H       1.150166      0.000000      1.061610
3
Coordinates from ORCA-job H2O_CASCI E -74.414301052059
  O      -0.665471      0.000000     -1.008105
  H       0.451486      0.000000      0.650933
  H       1.143985      0.000000      1.082173
