3
Coordinates from ORCA-job H2O_CASSCF E -65.779601185391
  O      -0.026983      0.000000      0.331733
  H       0.105622      0.000000      0.481452
  H       0.851360      0.000000     -0.088185
3
Coordinates from ORCA-job H2O_CASSCF E -65.807634279964
  O      -0.025569      0.000000      0.332189
  H       0.067601      0.000000      0.509161
  H       0.887968      0.000000     -0.116350
3
Coordinates from ORCA-job H2O_CASSCF E -65.826785951160
  O       0.003561      0.000000      0.324299
  H       0.043725      0.000000      0.520225
  H       0.882714      0.000000     -0.119525
3
Coordinates from ORCA-job H2O_CASSCF E -65.833782211701
  O       0.031735      0.000000      0.322527
  H       0.023803      0.000000      0.522369
  H       0.874462      0.000000     -0.119896
3
Coordinates from ORCA-job H2O_CASSCF E -65.834848868607
  O       0.040607      0.000000      0.325923
  H       0.011375      0.000000      0.523775
  H       0.878018      0.000000     -0.124697
3
Coordinates from ORCA-job H2O_CASSCF E -65.835022303602
  O       0.045214      0.000000      0.328083
  H       0.005065      0.000000      0.524012
  H       0.879720      0.000000     -0.127095
3
Coordinates from ORCA-job H2O_CASSCF E -65.835031949790
  O       0.046645      0.000000      0.328655
  H       0.003439      0.000000      0.523933
  H       0.879916      0.000000     -0.127588
3
Coordinates from ORCA-job H2O_CASSCF E -65.835032084463
  O       0.046832      0.000000      0.328731
  H       0.003229      0.000000      0.523920
  H       0.879939      0.000000     -0.127651
3
Coordinates from ORCA-job H2O_CASSCF E -73.022102105847
  O       0.055538      0.000000      0.246173
  H      -0.044649      0.000000      0.633423
  H       0.919111      0.000000     -0.154595
3
Coordinates from ORCA-job H2O_CASSCF E -73.023132485314
  O       0.051272      0.000000      0.240776
  H      -0.034248      0.000000      0.631527
  H       0.912976      0.000000     -0.147304
3
Coordinates from ORCA-job H2O_CASSCF E -73.025085200566
  O       0.020785      0.000000      0.225141
  H       0.006327      0.000000      0.624880
  H       0.902888      0.000000     -0.125021
3
Coordinates from ORCA-job H2O_CASSCF E -73.025259452761
  O       0.023432      0.000000      0.228523
  H      -0.002255      0.000000      0.627697
  H       0.908823      0.000000     -0.131220
3
Coordinates from ORCA-job H2O_CASSCF E -73.025272453009
  O       0.021338      0.000000      0.228332
  H      -0.001050      0.000000      0.627705
  H       0.909711      0.000000     -0.131037
3
Coordinates from ORCA-job H2O_CASSCF E -73.025272478342
  O       0.021239      0.000000      0.228320
  H      -0.000985      0.000000      0.627702
  H       0.909746      0.000000     -0.131023
3
Coordinates from ORCA-job H2O_CASSCF E -74.564779730696
  O       0.025860      0.000000      0.141873
  H      -0.035239      0.000000      0.738754
  H       0.939379      0.000000     -0.155626
3
Coordinates from ORCA-job H2O_CASSCF E -74.566386962724
  O       0.008685      0.000000      0.138517
  H      -0.024820      0.000000      0.737581
  H       0.946136      0.000000     -0.151098
3
Coordinates from ORCA-job H2O_CASSCF E -74.566968610188
  O      -0.006385      0.000000      0.131172
  H      -0.005158      0.000000      0.731171
  H       0.941543      0.000000     -0.137343
3
Coordinates from ORCA-job H2O_CASSCF E -74.566974760749
  O      -0.004904      0.000000      0.131840
  H      -0.007070      0.000000      0.731836
  H       0.941974      0.000000     -0.138676
3
Coordinates from ORCA-job H2O_CASSCF E -74.566974785531
  O      -0.004985      0.000000      0.131798
  H      -0.006954      0.000000      0.731795
  H       0.941939      0.000000     -0.138592
3
Coordinates from ORCA-job H2O_CASSCF E -74.822787461265
  O      -0.001406      0.000000      0.088602
  H      -0.022651      0.000000      0.788280
  H       0.954057      0.000000     -0.151882
3
Coordinates from ORCA-job H2O_CASSCF E -74.823116527984
  O      -0.010703      0.000000      0.087046
  H      -0.017376      0.000000      0.787014
  H       0.958079      0.000000     -0.149059
3
Coordinates from ORCA-job H2O_CASSCF E -74.823163143551
  O      -0.014476      0.000000      0.084797
  H      -0.011782      0.000000      0.784792
  H       0.956258      0.000000     -0.144589
3
Coordinates from ORCA-job H2O_CASSCF E -74.823163394459
  O      -0.014315      0.000000      0.084959
  H      -0.012162      0.000000      0.784956
  H       0.956476      0.000000     -0.144915
3
Coordinates from ORCA-job H2O_CASSCF E -74.823163394494
  O      -0.014318      0.000000      0.084957
  H      -0.012157      0.000000      0.784954
  H       0.956475      0.000000     -0.144911
3
Coordinates from ORCA-job H2O_CASSCF E -74.948186474067
  O      -0.009803      0.000000      0.042156
  H      -0.027961      0.000000      0.841950
  H       0.967764      0.000000     -0.159106
3
Coordinates from ORCA-job H2O_CASSCF E -74.948440329003
  O      -0.018800      0.000000      0.040077
  H      -0.022251      0.000000      0.840070
  H       0.971051      0.000000     -0.155147
3
Coordinates from ORCA-job H2O_CASSCF E -74.948457515347
  O      -0.021014      0.000000      0.038451
  H      -0.018580      0.000000      0.838447
  H       0.969594      0.000000     -0.151898
3
Coordinates from ORCA-job H2O_CASSCF E -74.948457777456
  O      -0.020920      0.000000      0.038626
  H      -0.018950      0.000000      0.838624
  H       0.969871      0.000000     -0.152250
3
Coordinates from ORCA-job H2O_CASSCF E -74.948457777548
  O      -0.020919      0.000000      0.038625
  H      -0.018947      0.000000      0.838622
  H       0.969866      0.000000     -0.152247
3
Coordinates from ORCA-job H2O_CASSCF E -74.982654452142
  O      -0.018182      0.000000      0.017454
  H      -0.027032      0.000000      0.867408
  H       0.975214      0.000000     -0.159863
3
Coordinates from ORCA-job H2O_CASSCF E -74.982708355348
  O      -0.022517      0.000000      0.016263
  H      -0.024014      0.000000      0.866262
  H       0.976531      0.000000     -0.157525
3
Coordinates from ORCA-job H2O_CASSCF E -74.982710626742
  O      -0.023294      0.000000      0.015626
  H      -0.022637      0.000000      0.865625
  H       0.975931      0.000000     -0.156251
3
Coordinates from ORCA-job H2O_CASSCF E -74.982710675236
  O      -0.023278      0.000000      0.015701
  H      -0.022787      0.000000      0.865701
  H       0.976066      0.000000     -0.156402
3
Coordinates from ORCA-job H2O_CASSCF E -75.004443271119
  O      -0.020315      0.000000     -0.005327
  H      -0.030978      0.000000      0.894610
  H       0.981293      0.000000     -0.164283
3
Coordinates from ORCA-job H2O_CASSCF E -75.004489127828
  O      -0.024457      0.000000     -0.006639
  H      -0.027915      0.000000      0.893354
  H       0.982372      0.000000     -0.161716
3
Coordinates from ORCA-job H2O_CASSCF E -75.004490397412
  O      -0.025008      0.000000     -0.007153
  H      -0.026855      0.000000      0.892845
  H       0.981864      0.000000     -0.160692
3
Coordinates from ORCA-job H2O_CASSCF E -75.004490430911
  O      -0.025004      0.000000     -0.007090
  H      -0.026976      0.000000      0.892907
  H       0.981980      0.000000     -0.160817
3
Coordinates from ORCA-job H2O_CASSCF E -75.015072551442
  O      -0.022458      0.000000     -0.023798
  H      -0.033622      0.000000      0.916136
  H       0.986081      0.000000     -0.167338
3
Coordinates from ORCA-job H2O_CASSCF E -75.015098099906
  O      -0.025629      0.000000     -0.024916
  H      -0.031156      0.000000      0.915068
  H       0.986786      0.000000     -0.165152
3
Coordinates from ORCA-job H2O_CASSCF E -75.015098591234
  O      -0.025952      0.000000     -0.025254
  H      -0.030485      0.000000      0.914735
  H       0.986437      0.000000     -0.164482
3
Coordinates from ORCA-job H2O_CASSCF E -75.015098605552
  O      -0.025954      0.000000     -0.025212
  H      -0.030562      0.000000      0.914776
  H       0.986515      0.000000     -0.164564
3
Coordinates from ORCA-job H2O_CASSCF E -75.018566756261
  O      -0.024614      0.000000     -0.033521
  H      -0.033925      0.000000      0.926433
  H       0.988539      0.000000     -0.167912
3
Coordinates from ORCA-job H2O_CASSCF E -75.018572671163
  O      -0.026156      0.000000     -0.034100
  H      -0.032681      0.000000      0.925878
  H       0.988837      0.000000     -0.166778
3
Coordinates from ORCA-job H2O_CASSCF E -75.018572762366
  O      -0.026291      0.000000     -0.034249
  H      -0.032390      0.000000      0.925732
  H       0.988681      0.000000     -0.166483
3
Coordinates from ORCA-job H2O_CASSCF E -75.020998530946
  O      -0.024918      0.000000     -0.042533
  H      -0.035772      0.000000      0.937407
  H       0.990691      0.000000     -0.169874
3
Coordinates from ORCA-job H2O_CASSCF E -75.021004043220
  O      -0.026432      0.000000     -0.043103
  H      -0.034571      0.000000      0.936863
  H       0.991003      0.000000     -0.168760
3
Coordinates from ORCA-job H2O_CASSCF E -75.021004117985
  O      -0.026543      0.000000     -0.043242
  H      -0.034304      0.000000      0.936727
  H       0.990847      0.000000     -0.168484
3
Coordinates from ORCA-job H2O_CASSCF E -75.022503266229
  O      -0.025139      0.000000     -0.051501
  H      -0.037706      0.000000      0.948420
  H       0.992845      0.000000     -0.171918
3
Coordinates from ORCA-job H2O_CASSCF E -75.022508400016
  O      -0.026613      0.000000     -0.052083
  H      -0.036512      0.000000      0.947868
  H       0.993125      0.000000     -0.170785
3
Coordinates from ORCA-job H2O_CASSCF E -75.022508459278
  O      -0.026706      0.000000     -0.052210
  H      -0.036272      0.000000      0.947744
  H       0.992978      0.000000     -0.170534
3
Coordinates from ORCA-job H2O_CASSCF E -75.022845928433
  O      -0.023121      0.000000     -0.072779
  H      -0.044820      0.000000      0.976997
  H       0.997941      0.000000     -0.179218
3
Coordinates from ORCA-job H2O_CASSCF E -75.022873089841
  O      -0.026577      0.000000     -0.074296
  H      -0.041895      0.000000      0.975592
  H       0.998472      0.000000     -0.176296
3
Coordinates from ORCA-job H2O_CASSCF E -75.022873322923
  O      -0.026727      0.000000     -0.074559
  H      -0.041418      0.000000      0.975338
  H       0.998145      0.000000     -0.175779
3
Coordinates from ORCA-job H2O_CASSCF E -75.022873331370
  O      -0.026731      0.000000     -0.074526
  H      -0.041477      0.000000      0.975371
  H       0.998208      0.000000     -0.175845
3
Coordinates from ORCA-job H2O_CASSCF E -75.019421287538
  O      -0.022960      0.000000     -0.094936
  H      -0.050151      0.000000      1.004728
  H       1.003111      0.000000     -0.184792
3
Coordinates from ORCA-job H2O_CASSCF E -75.019443989848
  O      -0.026164      0.000000     -0.096505
  H      -0.047284      0.000000      1.003292
  H       1.003448      0.000000     -0.181787
3
Coordinates from ORCA-job H2O_CASSCF E -75.019444138540
  O      -0.026253      0.000000     -0.096721
  H      -0.046907      0.000000      1.003085
  H       1.003160      0.000000     -0.181364
3
Coordinates from ORCA-job H2O_CASSCF E -75.005211804830
  O      -0.018374      0.000000     -0.137180
  H      -0.064479      0.000000      1.061934
  H       1.012853      0.000000     -0.199755
3
Coordinates from ORCA-job H2O_CASSCF E -75.005274898434
  O      -0.023849      0.000000     -0.140221
  H      -0.059431      0.000000      1.059251
  H       1.013280      0.000000     -0.194031
3
Coordinates from ORCA-job H2O_CASSCF E -75.005275376141
  O      -0.023911      0.000000     -0.140609
  H      -0.058793      0.000000      1.058884
  H       1.012704      0.000000     -0.193276
3
Coordinates from ORCA-job H2O_CASSCF E -75.005275389974
  O      -0.023916      0.000000     -0.140559
  H      -0.058875      0.000000      1.058932
  H       1.012791      0.000000     -0.193373
3
Coordinates from ORCA-job H2O_CASSCF E -74.965345256844
  O      -0.006930      0.000000     -0.220080
  H      -0.094927      0.000000      1.177151
  H       1.031857      0.000000     -0.232071
3
Coordinates from ORCA-job H2O_CASSCF E -74.965454581353
  O      -0.014142      0.000000     -0.225076
  H      -0.087850      0.000000      1.172983
  H       1.031992      0.000000     -0.222907
3
Coordinates from ORCA-job H2O_CASSCF E -74.965456962419
  O      -0.014405      0.000000     -0.226122
  H      -0.086302      0.000000      1.172030
  H       1.030708      0.000000     -0.220908
3
Coordinates from ORCA-job H2O_CASSCF E -74.965456976020
  O      -0.014397      0.000000     -0.226054
  H      -0.086404      0.000000      1.172093
  H       1.030801      0.000000     -0.221040
3
Coordinates from ORCA-job H2O_CASSCF E -74.945233364914
  O      -0.009941      0.000000     -0.277821
  H      -0.086161      0.000000      1.220241
  H       1.026102      0.000000     -0.217420
3
Coordinates from ORCA-job H2O_CASSCF E -74.945442760593
  O      -0.011337      0.000000     -0.271667
  H      -0.095104      0.000000      1.225992
  H       1.036441      0.000000     -0.229325
3
Coordinates from ORCA-job H2O_CASSCF E -74.945474299926
  O      -0.008736      0.000000     -0.267860
  H      -0.100371      0.000000      1.229338
  H       1.039107      0.000000     -0.236478
3
Coordinates from ORCA-job H2O_CASSCF E -74.945475481574
  O      -0.007977      0.000000     -0.267182
  H      -0.101286      0.000000      1.229913
  H       1.039263      0.000000     -0.237731
3
Coordinates from ORCA-job H2O_CASSCF E -74.945475486936
  O      -0.007955      0.000000     -0.267187
  H      -0.101278      0.000000      1.229907
  H       1.039233      0.000000     -0.237720
3
Coordinates from ORCA-job H2O_CASSCF E -74.910846937203
  O       0.002064      0.000000     -0.371043
  H      -0.101492      0.000000      1.325800
  H       1.029428      0.000000     -0.229757
3
Coordinates from ORCA-job H2O_CASSCF E -74.911369119566
  O       0.000005      0.000000     -0.360656
  H      -0.115529      0.000000      1.335414
  H       1.045524      0.000000     -0.249758
3
Coordinates from ORCA-job H2O_CASSCF E -74.911556124629
  O       0.005293      0.000000     -0.348827
  H      -0.130523      0.000000      1.345739
  H       1.055230      0.000000     -0.271911
3
Coordinates from ORCA-job H2O_CASSCF E -74.911566788461
  O       0.007531      0.000000     -0.346117
  H      -0.133830      0.000000      1.347996
  H       1.056300      0.000000     -0.276879
3
Coordinates from ORCA-job H2O_CASSCF E -74.911566932592
  O       0.007739      0.000000     -0.346073
  H      -0.133867      0.000000      1.348019
  H       1.056128      0.000000     -0.276947
3
Coordinates from ORCA-job H2O_CASSCF E -74.898369409378
  O       0.013815      0.000000     -0.398288
  H      -0.134744      0.000000      1.395571
  H       1.050929      0.000000     -0.272283
3
Coordinates from ORCA-job H2O_CASSCF E -74.898483142017
  O       0.012555      0.000000     -0.393326
  H      -0.141143      0.000000      1.400100
  H       1.058588      0.000000     -0.281773
3
Coordinates from ORCA-job H2O_CASSCF E -74.898535687420
  O       0.015073      0.000000     -0.386738
  H      -0.149110      0.000000      1.405758
  H       1.064037      0.000000     -0.294020
3
Coordinates from ORCA-job H2O_CASSCF E -74.898542534321
  O       0.016870      0.000000     -0.384115
  H      -0.152180      0.000000      1.407929
  H       1.065311      0.000000     -0.298814
3
Coordinates from ORCA-job H2O_CASSCF E -74.898542647645
  O       0.017072      0.000000     -0.384031
  H      -0.152262      0.000000      1.407986
  H       1.065190      0.000000     -0.298955
3
Coordinates from ORCA-job H2O_CASSCF E -74.888045880200
  O       0.023679      0.000000     -0.436369
  H      -0.153574      0.000000      1.455345
  H       1.059895      0.000000     -0.293976
3
Coordinates from ORCA-job H2O_CASSCF E -74.888131187259
  O       0.022213      0.000000     -0.432124
  H      -0.158899      0.000000      1.459224
  H       1.066686      0.000000     -0.302100
3
Coordinates from ORCA-job H2O_CASSCF E -74.888180406153
  O       0.024214      0.000000     -0.425614
  H      -0.166485      0.000000      1.464791
  H       1.072271      0.000000     -0.314177
3
Coordinates from ORCA-job H2O_CASSCF E -74.888193514971
  O       0.026648      0.000000     -0.421235
  H      -0.171433      0.000000      1.468411
  H       1.074785      0.000000     -0.322176
3
Coordinates from ORCA-job H2O_CASSCF E -74.888193878525
  O       0.027035      0.000000     -0.420968
  H      -0.171706      0.000000      1.468609
  H       1.074671      0.000000     -0.322641
3
Coordinates from ORCA-job H2O_CASSCF E -74.888193885637
  O       0.027059      0.000000     -0.421001
  H      -0.171664      0.000000      1.468578
  H       1.074604      0.000000     -0.322577
3
Coordinates from ORCA-job H2O_CASSCF E -74.880139925130
  O       0.034172      0.000000     -0.473449
  H      -0.173419      0.000000      1.515748
  H       1.069247      0.000000     -0.317298
3
Coordinates from ORCA-job H2O_CASSCF E -74.880202241710
  O       0.032447      0.000000     -0.469981
  H      -0.177694      0.000000      1.518949
  H       1.075248      0.000000     -0.323967
3
Coordinates from ORCA-job H2O_CASSCF E -74.880240794144
  O       0.033806      0.000000     -0.464423
  H      -0.183954      0.000000      1.523687
  H       1.080147      0.000000     -0.334265
3
Coordinates from ORCA-job H2O_CASSCF E -74.880262337532
  O       0.036843      0.000000     -0.457646
  H      -0.191370      0.000000      1.529291
  H       1.084527      0.000000     -0.346645
3
Coordinates from ORCA-job H2O_CASSCF E -74.880263173353
  O       0.037466      0.000000     -0.457020
  H      -0.192010      0.000000      1.529772
  H       1.084544      0.000000     -0.347752
3
Coordinates from ORCA-job H2O_CASSCF E -74.880263200553
  O       0.037536      0.000000     -0.457055
  H      -0.191961      0.000000      1.529734
  H       1.084425      0.000000     -0.347679
3
Coordinates from ORCA-job H2O_CASSCF E -74.869804450804
  O       0.052712      0.000000     -0.562150
  H      -0.196360      0.000000      1.623705
  H       1.073648      0.000000     -0.336554
3
Coordinates from ORCA-job H2O_CASSCF E -74.869900017417
  O       0.049823      0.000000     -0.558110
  H      -0.201265      0.000000      1.627514
  H       1.081442      0.000000     -0.344404
3
Coordinates from ORCA-job H2O_CASSCF E -74.869973116123
  O       0.050585      0.000000     -0.550438
  H      -0.209502      0.000000      1.634134
  H       1.088917      0.000000     -0.358696
3
Coordinates from ORCA-job H2O_CASSCF E -74.870069285988
  O       0.055937      0.000000     -0.531757
  H      -0.228880      0.000000      1.649728
  H       1.102944      0.000000     -0.392971
3
Coordinates from ORCA-job H2O_CASSCF E -74.870080100965
  O       0.058451      0.000000     -0.527136
  H      -0.233478      0.000000      1.653409
  H       1.105027      0.000000     -0.401273
3
Coordinates from ORCA-job H2O_CASSCF E -74.870080920731
  O       0.059040      0.000000     -0.526736
  H      -0.233825      0.000000      1.653683
  H       1.104785      0.000000     -0.401947
3
Coordinates from ORCA-job H2O_CASSCF E -74.870080930689
  O       0.059031      0.000000     -0.526860
  H      -0.233694      0.000000      1.653579
  H       1.104663      0.000000     -0.401719
3
Coordinates from ORCA-job H2O_CASSCF E -74.863148131066
  O       0.084259      0.000000     -0.685029
  H      -0.242793      0.000000      1.793486
  H       1.088534      0.000000     -0.383456
3
Coordinates from ORCA-job H2O_CASSCF E -74.863184304744
  O       0.081975      0.000000     -0.682684
  H      -0.245585      0.000000      1.795764
  H       1.093609      0.000000     -0.388080
3
Coordinates from ORCA-job H2O_CASSCF E -74.863216467335
  O       0.081586      0.000000     -0.677556
  H      -0.250766      0.000000      1.800254
  H       1.099180      0.000000     -0.397697
3
Coordinates from ORCA-job H2O_CASSCF E -74.863321318353
  O       0.084080      0.000000     -0.651131
  H      -0.276488      0.000000      1.822731
  H       1.122407      0.000000     -0.446600
3
Coordinates from ORCA-job H2O_CASSCF E -74.863360127813
  O       0.088561      0.000000     -0.634643
  H      -0.291949      0.000000      1.836230
  H       1.133388      0.000000     -0.476587
3
Coordinates from ORCA-job H2O_CASSCF E -74.863370797255
  O       0.091682      0.000000     -0.627559
  H      -0.298383      0.000000      1.841823
  H       1.136701      0.000000     -0.489264
3
Coordinates from ORCA-job H2O_CASSCF E -74.863371185410
  O       0.092012      0.000000     -0.627502
  H      -0.298392      0.000000      1.841827
  H       1.136380      0.000000     -0.489325
